0
4096
-4096
8192
0
4096
-4096
8192
0
4096
-4096
8192
0
4096
-4096
8192
0
4096
-4096
8192
0
4096
-4096
8192
0
4096
-4096
8192
0
4096
-4096
8192
0
4096
-4096
8192
0
4096
-4096
8192
0
4096
-4096
8192
0
4096
-4096
8192
0
4096
-4096
8192
0
4096
-4096
8192
0
4096
-4096
8192
0
4096
-4096
8192
0
4096
-4096
8192
0
4096
-4096
8192
0
4096
-4096
8192
0
4096
-4096
8192
0
4096
-4096
8192
0
4096
-4096
8192
0
4096
-4096
8192
0
4096
-4096
8192
0
4096
-4096
8192
0
4096
-4096
8192
0
4096
-4096
8192
0
4096
-4096
8192
0
4096
-4096
8192
0
4096
-4096
8192
0
4096
-4096
8192
0
4096
-4096
8192
0
4096
-4096
8192
0
4096
-4096
8192
0
4096
-4096
8192
0
4096
-4096
8192
0
4096
-4096
8192
0
4096
-4096
8192
0
4096
-4096
8192
0
4096
-4096
8192
0
4096
-4096
8192
0
4096
-4096
8192
0
4096
-4096
8192
0
4096
-4096
8192
0
4096
-4096
8192
0
4096
-4096
8192
0
4096
-4096
8192
0
4096
-4096
8192
0
4096
-4096
8192
0
4096
-4096
8192
0
4096
-4096
8192
0
4096
-4096
8192
0
4096
-4096
8192
0
4096
-4096
8192
0
4096
-4096
8192
0
4096
-4096
8192
0
4096
-4096
8192
0
4096
-4096
8192
0
4096
-4096
8192
0
4096
-4096
8192
0
4096
-4096
8192
0
4096
-4096
8192
0
4096
-4096
8192
0
4096
-4096
8192
0
4096
-4096
8192
0
4096
-4096
8192
0
4096
-4096
8192
0
4096
-4096
8192
0
4096
-4096
8192
0
4096
-4096
8192
0
4096
-4096
8192
0
4096
-4096
8192
0
4096
-4096
8192
0
4096
-4096
8192
0
4096
-4096
8192
0
4096
-4096
8192
0
4096
-4096
8192
0
4096
-4096
8192
0
4096
-4096
8192
0
4096
-4096
8192
0
4096
-4096
8192
0
4096
-4096
8192
0
4096
-4096
8192
0
4096
-4096
8192
0
4096
-4096
8192
0
4096
-4096
8192
0
4096
-4096
8192
0
4096
-4096
8192
0
4096
-4096
8192
0
4096
-4096
8192
0
4096
-4096
8192
0
4096
-4096
8192
0
4096
-4096
8192
0
4096
-4096
8192
0
4096
-4096
8192
0
4096
-4096
8192
0
4096
-4096
8192
0
4096
-4096
8192
0
4096
-4096
8192
0
4096
-4096
8192
0
4096
-4096
8192
0
4096
-4096
8192
0
4096
-4096
8192
0
4096
-4096
8192
0
4096
-4096
8192
0
4096
-4096
8192
0
4096
-4096
8192
0
4096
-4096
8192
0
4096
-4096
8192
0
4096
-4096
8192
0
4096
-4096
8192
0
4096
-4096
8192
0
4096
-4096
8192
0
4096
-4096
8192
0
4096
-4096
8192
0
4096
-4096
8192
0
4096
-4096
8192
0
4096
-4096
8192
0
4096
-4096
8192
0
4096
-4096
8192
0
4096
-4096
8192
0
4096
-4096
8192
0
4096
-4096
8192
0
4096
-4096
8192
0
4096
-4096
8192
0
4096
-4096
8192
0
4096
-4096
8192
0
4096
-4096
8192
0
4096
-4096
8192
0
4096
-4096
8192
0
4096
-4096
8192
0
4096
-4096
8192
0
4096
-4096
8192
0
4096
-4096
8192
0
4096
-4096
8192
0
4096
-4096
8192
0
4096
-4096
8192
0
4096
-4096
8192
0
4096
-4096
8192
0
4096
-4096
8192
0
4096
-4096
8192
0
4096
-4096
8192
0
4096
-4096
8192
0
4096
-4096
8192
0
4096
-4096
8192
0
4096
-4096
8192
0
4096
-4096
8192
0
4096
-4096
8192
0
4096
-4096
8192
0
4096
-4096
8192
0
4096
-4096
8192
0
4096
-4096
8192
0
4096
-4096
8192
0
4096
-4096
8192
0
4096
-4096
8192
0
4096
-4096
8192
0
4096
-4096
8192
0
4096
-4096
8192
0
4096
-4096
8192
0
4096
-4096
8192
0
4096
-4096
8192
0
4096
-4096
8192
0
4096
-4096
8192
0
4096
-4096
8192
0
4096
-4096
8192
0
4096
-4096
8192
0
4096
-4096
8192
0
4096
-4096
8192
0
4096
-4096
8192
0
4096
-4096
8192
0
4096
-4096
8192
0
4096
-4096
8192
0
4096
-4096
8192
0
4096
-4096
8192
0
4096
-4096
8192
0
4096
-4096
8192
0
4096
-4096
8192
0
4096
-4096
8192
0
4096
-4096
8192
0
4096
-4096
8192
0
4096
-4096
8192
0
4096
-4096
8192
0
4096
-4096
8192
0
4096
-4096
8192
0
4096
-4096
8192
0
4096
-4096
8192
0
4096
-4096
8192
0
4096
-4096
8192
0
4096
-4096
8192
0
4096
-4096
8192
0
4096
-4096
8192
0
4096
-4096
8192
0
4096
-4096
8192
0
4096
-4096
8192
0
4096
-4096
8192
0
4096
-4096
8192
0
4096
-4096
8192
0
4096
-4096
8192
0
4096
-4096
8192
0
4096
-4096
8192
0
4096
-4096
8192
0
4096
-4096
8192
0
4096
-4096
8192
0
4096
-4096
8192
0
4096
-4096
8192
0
4096
-4096
8192
0
4096
-4096
8192
0
4096
-4096
8192
0
4096
-4096
8192
0
4096
-4096
8192
0
4096
-4096
8192
0
4096
-4096
8192
0
4096
-4096
8192
0
4096
-4096
8192
0
4096
-4096
8192
0
4096
-4096
8192
0
4096
-4096
8192
0
4096
-4096
8192
0
4096
-4096
8192
0
4096
-4096
8192
0
4096
-4096
8192
0
4096
-4096
8192
0
4096
-4096
8192
0
4096
-4096
8192
0
4096
-4096
8192
0
4096
-4096
8192
0
4096
-4096
8192
0
4096
-4096
8192
0
4096
-4096
8192
0
4096
-4096
8192
0
4096
-4096
8192
0
4096
-4096
8192
0
4096
-4096
8192
0
4096
-4096
8192
0
4096
-4096
8192
0
4096
-4096
8192
0
4096
-4096
8192
0
4096
-4096
8192
0
4096
-4096
8192
0
4096
-4096
8192
0
4096
-4096
8192
0
4096
-4096
8192
0
4096
-4096
8192
0
4096
-4096
8192
0
4096
-4096
8192
0
4096
-4096
8192
0
4096
-4096
8192
0
4096
-4096
8192
0
4096
-4096
8192
0
4096
-4096
8192
0
4096
-4096
8192
0
4096
-4096
8192
0
4096
-4096
8192
0
4096
-4096
8192
0
4096
-4096
8192
0
4096
-4096
8192
0
4096
-4096
8192
0
4096
-4096
8192
0
4096
-4096
8192
0
4096
-4096
8192
0
4096
-4096
8192
0
4096
-4096
8192
0
4096
-4096
8192
0
4096
-4096
8192
0
4096
-4096
8192
0
4096
-4096
8192
0
4096
-4096
8192
0
4096
-4096
8192
0
4096
-4096
8192
0
4096
-4096
8192
0
4096
-4096
8192
0
4096
-4096
8192
0
4096
-4096
8192
0
4096
-4096
8192
0
4096
-4096
8192
0
4096
-4096
8192
0
4096
-4096
8192
0
4096
-4096
8192
0
4096
-4096
8192
0
4096
-4096
8192
0
4096
-4096
8192
0
4096
-4096
8192
0
4096
-4096
8192
0
4096
-4096
8192
0
4096
-4096
8192
0
4096
-4096
8192
0
4096
-4096
8192
0
4096
-4096
8192
0
4096
-4096
8192
0
4096
-4096
8192
0
4096
-4096
8192
0
4096
-4096
8192
0
4096
-4096
8192
0
4096
-4096
8192
0
4096
-4096
8192
0
4096
-4096
8192
0
4096
-4096
8192
0
4096
-4096
8192
0
4096
-4096
8192
0
4096
-4096
8192
0
4096
-4096
8192
0
4096
-4096
8192
0
4096
-4096
8192
0
4096
-4096
8192
0
4096
-4096
8192
0
4096
-4096
8192
0
4096
-4096
8192
0
4096
-4096
8192
0
4096
-4096
8192
0
4096
-4096
8192
0
4096
-4096
8192
0
4096
-4096
8192
0
4096
-4096
8192
0
4096
-4096
8192
0
4096
-4096
8192
0
4096
-4096
8192
0
4096
-4096
8192
0
4096
-4096
8192
0
4096
-4096
8192
0
4096
-4096
8192
0
4096
-4096
8192
0
4096
-4096
8192
0
4096
-4096
8192
0
4096
-4096
8192
0
4096
-4096
8192
0
4096
-4096
8192
0
4096
-4096
8192
0
4096
-4096
8192
0
4096
-4096
8192
0
4096
-4096
8192
0
4096
-4096
8192
0
4096
-4096
8192
0
4096
-4096
8192
0
4096
-4096
8192
0
4096
-4096
8192
0
4096
-4096
8192
0
4096
-4096
8192
0
4096
-4096
8192
0
4096
-4096
8192
0
4096
-4096
8192
0
4096
-4096
8192
0
4096
-4096
8192
0
4096
-4096
8192
0
4096
-4096
8192
0
4096
-4096
8192
0
4096
-4096
8192
0
4096
-4096
8192
0
4096
-4096
8192
0
4096
-4096
8192
0
4096
-4096
8192
0
4096
-4096
8192
0
4096
-4096
8192
0
4096
-4096
8192
0
4096
-4096
8192
0
4096
-4096
8192
0
4096
-4096
8192
0
4096
-4096
8192
0
4096
-4096
8192
0
4096
-4096
8192
0
4096
-4096
8192
0
4096
-4096
8192
0
4096
-4096
8192
0
4096
-4096
8192
0
4096
-4096
8192
0
4096
-4096
8192
0
4096
-4096
8192
0
4096
-4096
8192
0
4096
-4096
8192
0
4096
-4096
8192
0
4096
-4096
8192
0
4096
-4096
8192
0
4096
-4096
8192
0
4096
-4096
8192
0
4096
-4096
8192
0
4096
-4096
8192
0
4096
-4096
8192
0
4096
-4096
8192
0
4096
-4096
8192
0
4096
-4096
8192
0
4096
-4096
8192
0
4096
-4096
8192
0
4096
-4096
8192
0
4096
-4096
8192
0
4096
-4096
8192
0
4096
-4096
8192
0
4096
-4096
8192
0
4096
-4096
8192
0
4096
-4096
8192
0
4096
-4096
8192
0
4096
-4096
8192
0
4096
-4096
8192
0
4096
-4096
8192
0
4096
-4096
8192
0
4096
-4096
8192
0
4096
-4096
8192
0
4096
-4096
8192
0
4096
-4096
8192
0
4096
-4096
8192
0
4096
-4096
8192
0
4096
-4096
8192
0
4096
-4096
8192
0
4096
-4096
8192
0
4096
-4096
8192
0
4096
-4096
8192
0
4096
-4096
8192
0
4096
-4096
8192
0
4096
-4096
8192
0
4096
-4096
8192
0
4096
-4096
8192
0
4096
-4096
8192
0
4096
-4096
8192
0
4096
-4096
8192
0
4096
-4096
8192
0
4096
-4096
8192
0
4096
-4096
8192
0
4096
-4096
8192
0
4096
-4096
8192
0
4096
-4096
8192
0
4096
-4096
8192
0
4096
-4096
8192
0
4096
-4096
8192
0
4096
-4096
8192
0
4096
-4096
8192
0
4096
-4096
8192
0
4096
-4096
8192
0
4096
-4096
8192
0
4096
-4096
8192
0
4096
-4096
8192
0
4096
-4096
8192
0
4096
-4096
8192
0
4096
-4096
8192
0
4096
-4096
8192
0
4096
-4096
8192
0
4096
-4096
8192
0
4096
-4096
8192
0
4096
-4096
8192
0
4096
-4096
8192
0
4096
-4096
8192
0
4096
-4096
8192
0
4096
-4096
8192
0
4096
-4096
8192
0
4096
-4096
8192
0
4096
-4096
8192
0
4096
-4096
8192
0
4096
-4096
8192
0
4096
-4096
8192
0
4096
-4096
8192
0
4096
-4096
8192
0
4096
-4096
8192
0
4096
-4096
8192
0
4096
-4096
8192
0
4096
-4096
8192
0
4096
-4096
8192
0
4096
-4096
8192
0
4096
-4096
8192
0
4096
-4096
8192
0
4096
-4096
8192
0
4096
-4096
8192
0
4096
-4096
8192
0
4096
-4096
8192
0
4096
-4096
8192
0
4096
-4096
8192
0
4096
-4096
8192
0
4096
-4096
8192
0
4096
-4096
8192
0
4096
-4096
8192
0
4096
-4096
8192
0
4096
-4096
8192
0
4096
-4096
8192
0
4096
-4096
8192
0
4096
-4096
8192
0
4096
-4096
8192
0
4096
-4096
8192
0
4096
-4096
8192
0
4096
-4096
8192
0
4096
-4096
8192
0
4096
-4096
8192
0
4096
-4096
8192
0
4096
-4096
8192
0
4096
-4096
8192
0
4096
-4096
8192
0
4096
-4096
8192
0
4096
-4096
8192
0
4096
-4096
8192
0
4096
-4096
8192
0
4096
-4096
8192
0
4096
-4096
8192
0
4096
-4096
8192
0
4096
-4096
8192
0
4096
-4096
8192
0
4096
-4096
8192
0
4096
-4096
8192
0
4096
-4096
8192
0
4096
-4096
8192
0
4096
-4096
8192
0
4096
-4096
8192
0
4096
-4096
8192
0
4096
-4096
8192
0
4096
-4096
8192
0
4096
-4096
8192
0
4096
-4096
8192
0
4096
-4096
8192
0
4096
-4096
8192
0
4096
-4096
8192
0
4096
-4096
8192
0
4096
-4096
8192
0
4096
-4096
8192
0
4096
-4096
8192
0
4096
-4096
8192
0
4096
-4096
8192
0
4096
-4096
8192
0
4096
-4096
8192
0
4096
-4096
8192
0
4096
-4096
8192
0
4096
-4096
8192
0
4096
-4096
8192
0
4096
-4096
8192
0
4096
-4096
8192
0
4096
-4096
8192
0
4096
-4096
8192
0
4096
-4096
8192
0
4096
-4096
8192
0
4096
-4096
8192
0
4096
-4096
8192
0
4096
-4096
8192
0
4096
-4096
8192
0
4096
-4096
8192
0
4096
-4096
8192
0
4096
-4096
8192
0
4096
-4096
8192
0
4096
-4096
8192
0
4096
-4096
8192
0
4096
-4096
8192
0
4096
-4096
8192
0
4096
-4096
8192
0
4096
-4096
8192
0
4096
-4096
8192
0
4096
-4096
8192
0
4096
-4096
8192
0
4096
-4096
8192
0
4096
-4096
8192
0
4096
-4096
8192
0
4096
-4096
8192
0
4096
-4096
8192
0
4096
-4096
8192
0
4096
-4096
8192
0
4096
-4096
8192
0
4096
-4096
8192
0
4096
-4096
8192
0
4096
-4096
8192
0
4096
-4096
8192
0
4096
-4096
8192
0
4096
-4096
8192
0
4096
-4096
8192
0
4096
-4096
8192
0
4096
-4096
8192
0
4096
-4096
8192
0
4096
-4096
8192
0
4096
-4096
8192
0
4096
-4096
8192
0
4096
-4096
8192
0
4096
-4096
8192
0
4096
-4096
8192
0
4096
-4096
8192
0
4096
-4096
8192
0
4096
-4096
8192
0
4096
-4096
8192
0
4096
-4096
8192
0
4096
-4096
8192
0
4096
-4096
8192
0
4096
-4096
8192
0
4096
-4096
8192
0
4096
-4096
8192
0
4096
-4096
8192
0
4096
-4096
8192
0
4096
-4096
8192
0
4096
-4096
8192
0
4096
-4096
8192
0
4096
-4096
8192
0
4096
-4096
8192
0
4096
-4096
8192
0
4096
-4096
8192
0
4096
-4096
8192
0
4096
-4096
8192
0
4096
-4096
8192
0
4096
-4096
8192
0
4096
-4096
8192
0
4096
-4096
8192
0
4096
-4096
8192
0
4096
-4096
8192
0
4096
-4096
8192
0
4096
-4096
8192
0
4096
-4096
8192
0
4096
-4096
8192
0
4096
-4096
8192
0
4096
-4096
8192
0
4096
-4096
8192
0
4096
-4096
8192
0
4096
-4096
8192
0
4096
-4096
8192
0
4096
-4096
8192
0
4096
-4096
8192
0
4096
-4096
8192
0
4096
-4096
8192
0
4096
-4096
8192
0
4096
-4096
8192
0
4096
-4096
8192
0
4096
-4096
8192
0
4096
-4096
8192
0
4096
-4096
8192
0
4096
-4096
8192
0
4096
-4096
8192
0
4096
-4096
8192
0
4096
-4096
8192
0
4096
-4096
8192
0
4096
-4096
8192
0
4096
-4096
8192
0
4096
-4096
8192
0
4096
-4096
8192
0
4096
-4096
8192
0
4096
-4096
8192
0
4096
-4096
8192
0
4096
-4096
8192
0
4096
-4096
8192
0
4096
-4096
8192
0
4096
-4096
8192
0
4096
-4096
8192
0
4096
-4096
8192
0
4096
-4096
8192
0
4096
-4096
8192
0
4096
-4096
8192
0
4096
-4096
8192
0
4096
-4096
8192
0
4096
-4096
8192
0
4096
-4096
8192
0
4096
-4096
8192
0
4096
-4096
8192
0
4096
-4096
8192
0
4096
-4096
8192
0
4096
-4096
8192
0
4096
-4096
8192
0
4096
-4096
8192
0
4096
-4096
8192
0
4096
-4096
8192
0
4096
-4096
8192
0
4096
-4096
8192
0
4096
-4096
8192
0
4096
-4096
8192
0
4096
-4096
8192
0
4096
-4096
8192
0
4096
-4096
8192
0
4096
-4096
8192
0
4096
-4096
8192
0
4096
-4096
8192
0
4096
-4096
8192
0
4096
-4096
8192
0
4096
-4096
8192
0
4096
-4096
8192
0
4096
-4096
8192
0
4096
-4096
8192
0
4096
-4096
8192
0
4096
-4096
8192
0
4096
-4096
8192
0
4096
-4096
8192
0
4096
-4096
8192
0
4096
-4096
8192
0
4096
-4096
8192
0
4096
-4096
8192
0
4096
-4096
8192
0
4096
-4096
8192
0
4096
-4096
8192
0
4096
-4096
8192
0
4096
-4096
8192
0
4096
-4096
8192
0
4096
-4096
8192
0
4096
-4096
8192
0
4096
-4096
8192
0
4096
-4096
8192
0
4096
-4096
8192
0
4096
-4096
8192
0
4096
-4096
8192
0
4096
-4096
8192
0
4096
-4096
8192
0
4096
-4096
8192
0
4096
-4096
8192
0
4096
-4096
8192
0
4096
-4096
8192
0
4096
-4096
8192
0
4096
-4096
8192
0
4096
-4096
8192
0
4096
-4096
8192
0
4096
-4096
8192
0
4096
-4096
8192
0
4096
-4096
8192
0
4096
-4096
8192
0
4096
-4096
8192
0
4096
-4096
8192
0
4096
-4096
8192
0
4096
-4096
8192
0
4096
-4096
8192
0
4096
-4096
8192
0
4096
-4096
8192
0
4096
-4096
8192
0
4096
-4096
8192
0
4096
-4096
8192
0
4096
-4096
8192
0
4096
-4096
8192
0
4096
-4096
8192
0
4096
-4096
8192
0
4096
-4096
8192
0
4096
-4096
8192
0
4096
-4096
8192
0
4096
-4096
8192
0
4096
-4096
8192
0
4096
-4096
8192
0
4096
-4096
8192
0
4096
-4096
8192
0
4096
-4096
8192
0
4096
-4096
8192
0
4096
-4096
8192
0
4096
-4096
8192
0
4096
-4096
8192
0
4096
-4096
8192
0
4096
-4096
8192
0
4096
-4096
8192
0
4096
-4096
8192
0
4096
-4096
8192
0
4096
-4096
8192
0
4096
-4096
8192
0
4096
-4096
8192
0
4096
-4096
8192
0
4096
-4096
8192
0
4096
-4096
8192
0
4096
-4096
8192
0
4096
-4096
8192
0
4096
-4096
8192
0
4096
-4096
8192
0
4096
-4096
8192
0
4096
-4096
8192
0
4096
-4096
8192
0
4096
-4096
8192
0
4096
-4096
8192
0
4096
-4096
8192
0
4096
-4096
8192
0
4096
-4096
8192
0
4096
-4096
8192
0
4096
-4096
8192
0
4096
-4096
8192
0
4096
-4096
8192
0
4096
-4096
8192
0
4096
-4096
8192
0
4096
-4096
8192
0
4096
-4096
8192
0
4096
-4096
8192
0
4096
-4096
8192
0
4096
-4096
8192
0
4096
-4096
8192
0
4096
-4096
8192
0
4096
-4096
8192
0
4096
-4096
8192
0
4096
-4096
8192
0
4096
-4096
8192
0
4096
-4096
8192
0
4096
-4096
8192
0
4096
-4096
8192
0
4096
-4096
8192
0
4096
-4096
8192
0
4096
-4096
8192
0
4096
-4096
8192
0
4096
-4096
8192
0
4096
-4096
8192
0
4096
-4096
8192
0
4096
-4096
8192
0
4096
-4096
8192
0
4096
-4096
8192
0
4096
-4096
8192
0
4096
-4096
8192
0
4096
-4096
8192
0
4096
-4096
8192
0
4096
-4096
8192
0
4096
-4096
8192
0
4096
-4096
8192
0
4096
-4096
8192
0
4096
-4096
8192
0
4096
-4096
8192
0
4096
-4096
8192
0
4096
-4096
8192
0
4096
-4096
8192
0
4096
-4096
8192
0
4096
-4096
8192
0
4096
-4096
8192
0
4096
-4096
8192
0
4096
-4096
8192
0
4096
-4096
8192
0
4096
-4096
8192
0
4096
-4096
8192
0
4096
-4096
8192
0
4096
-4096
8192
0
4096
-4096
8192
0
4096
-4096
8192
0
4096
-4096
8192
0
4096
-4096
8192
0
4096
-4096
8192
0
4096
-4096
8192
0
4096
-4096
8192
0
4096
-4096
8192
0
4096
-4096
8192
0
4096
-4096
8192
0
4096
-4096
8192
0
4096
-4096
8192
0
4096
-4096
8192
0
4096
-4096
8192
0
4096
-4096
8192
0
4096
-4096
8192
0
4096
-4096
8192
0
4096
-4096
8192
0
4096
-4096
8192
0
4096
-4096
8192
0
4096
-4096
8192
0
4096
-4096
8192
0
4096
-4096
8192
0
4096
-4096
8192
0
4096
-4096
8192
0
4096
-4096
8192
0
4096
-4096
8192
0
4096
-4096
8192
0
4096
-4096
8192
0
4096
-4096
8192
0
4096
-4096
8192
0
4096
-4096
8192
0
4096
-4096
8192
0
4096
-4096
8192
0
4096
-4096
8192
0
4096
-4096
8192
0
4096
-4096
8192
0
4096
-4096
8192
0
4096
-4096
8192
0
4096
-4096
8192
0
4096
-4096
8192
0
4096
-4096
8192
0
4096
-4096
8192
0
4096
-4096
8192
0
4096
-4096
8192
0
4096
-4096
8192
0
4096
-4096
8192
0
4096
-4096
8192
0
4096
-4096
8192
0
4096
-4096
8192
0
4096
-4096
8192
0
4096
-4096
8192
0
4096
-4096
8192
0
4096
-4096
8192
0
4096
-4096
8192
0
4096
-4096
8192
0
4096
-4096
8192
0
4096
-4096
8192
0
4096
-4096
8192
0
4096
-4096
8192
0
4096
-4096
8192
0
4096
-4096
8192
0
4096
-4096
8192
0
4096
-4096
8192
0
4096
-4096
8192
0
4096
-4096
8192
0
4096
-4096
8192
0
4096
-4096
8192
0
4096
-4096
8192
0
4096
-4096
8192
0
4096
-4096
8192
0
4096
-4096
8192
0
4096
-4096
8192
0
4096
-4096
8192
0
4096
-4096
8192
0
4096
-4096
8192
0
4096
-4096
8192
0
4096
-4096
8192
0
4096
-4096
8192
0
4096
-4096
8192
0
4096
-4096
8192
0
4096
-4096
8192
0
4096
-4096
8192
0
4096
-4096
8192
0
4096
-4096
8192
0
4096
-4096
8192
0
4096
-4096
8192
0
4096
-4096
8192
0
4096
-4096
8192
0
4096
-4096
8192
0
4096
-4096
8192
0
4096
-4096
8192
0
4096
-4096
8192
0
4096
-4096
8192
0
4096
-4096
8192
0
4096
-4096
8192
0
4096
-4096
8192
0
4096
-4096
8192
0
4096
-4096
8192
0
4096
-4096
8192
0
4096
-4096
8192
0
4096
-4096
8192
0
4096
-4096
8192
0
4096
-4096
8192
0
4096
-4096
8192
0
4096
-4096
8192
0
4096
-4096
8192
0
4096
-4096
8192
0
4096
-4096
8192
0
4096
-4096
8192
0
4096
-4096
8192
0
4096
-4096
8192
0
4096
-4096
8192
0
4096
-4096
8192
0
4096
-4096
8192
0
4096
-4096
8192
0
4096
-4096
8192
0
4096
-4096
8192
0
4096
-4096
8192
0
4096
-4096
8192
0
4096
-4096
8192
0
4096
-4096
8192
0
4096
-4096
8192
0
4096
-4096
8192
0
4096
-4096
8192
0
4096
-4096
8192
0
4096
-4096
8192
0
4096
-4096
8192
0
4096
-4096
8192
0
4096
-4096
8192
0
4096
-4096
8192
0
4096
-4096
8192
0
4096
-4096
8192
0
4096
-4096
8192
0
4096
-4096
8192
0
4096
-4096
8192
0
4096
-4096
8192
0
4096
-4096
8192
0
4096
-4096
8192
0
4096
-4096
8192
0
4096
-4096
8192
0
4096
-4096
8192
0
4096
-4096
8192
0
4096
-4096
8192
0
4096
-4096
8192
0
4096
-4096
8192
0
4096
-4096
8192
0
4096
-4096
8192
0
4096
-4096
8192
0
4096
-4096
8192
0
4096
-4096
8192
0
4096
-4096
8192
0
4096
-4096
8192
0
4096
-4096
8192
0
4096
-4096
8192
0
4096
-4096
8192
0
4096
-4096
8192
0
4096
-4096
8192
0
4096
-4096
8192
0
4096
-4096
8192
0
4096
-4096
8192
0
4096
-4096
8192
0
4096
-4096
8192
0
4096
-4096
8192
0
4096
-4096
8192
0
4096
-4096
8192
0
4096
-4096
8192
0
4096
-4096
8192
0
4096
-4096
8192
0
4096
-4096
8192
0
4096
-4096
8192
0
4096
-4096
8192
0
4096
-4096
8192
0
4096
-4096
8192
0
4096
-4096
8192
0
4096
-4096
8192
0
4096
-4096
8192
0
4096
-4096
8192
0
4096
-4096
8192
0
4096
-4096
8192
0
4096
-4096
8192
0
4096
-4096
8192
0
4096
-4096
8192
0
4096
-4096
8192
0
4096
-4096
8192
0
4096
-4096
8192
0
4096
-4096
8192
0
4096
-4096
8192
0
4096
-4096
8192
0
4096
-4096
8192
0
4096
-4096
8192
0
4096
-4096
8192
0
4096
-4096
8192
0
4096
-4096
8192
0
4096
-4096
8192
0
4096
-4096
8192
0
4096
-4096
8192
0
4096
-4096
8192
0
4096
-4096
8192
0
4096
-4096
8192
0
4096
-4096
8192
0
4096
-4096
8192
0
4096
-4096
8192
0
4096
-4096
8192
0
4096
-4096
8192
0
4096
-4096
8192
0
4096
-4096
8192
0
4096
-4096
8192
0
4096
-4096
8192
0
4096
-4096
8192
0
4096
-4096
8192
0
4096
-4096
8192
0
4096
-4096
8192
0
4096
-4096
8192
0
4096
-4096
8192
0
4096
-4096
8192
0
4096
-4096
8192
0
4096
-4096
8192
0
4096
-4096
8192
0
4096
-4096
8192
0
4096
-4096
8192
0
4096
-4096
8192
0
4096
-4096
8192
0
4096
-4096
8192
0
4096
-4096
8192
0
4096
-4096
8192
0
4096
-4096
8192
0
4096
-4096
8192
0
4096
-4096
8192
0
4096
-4096
8192
0
4096
-4096
8192
0
4096
-4096
8192
0
4096
-4096
8192
0
4096
-4096
8192
0
4096
-4096
8192
0
4096
-4096
8192
0
4096
-4096
8192
0
4096
-4096
8192
0
4096
-4096
8192
0
4096
-4096
8192
0
4096
-4096
8192
0
4096
-4096
8192
0
4096
-4096
8192
0
4096
-4096
8192
0
4096
-4096
8192
0
4096
-4096
8192
0
4096
-4096
8192
0
4096
-4096
8192
0
4096
-4096
8192
0
4096
-4096
8192
0
4096
-4096
8192
0
4096
-4096
8192
0
4096
-4096
8192
0
4096
-4096
8192
0
4096
-4096
8192
0
4096
-4096
8192
0
4096
-4096
8192
0
4096
-4096
8192
0
4096
-4096
8192
0
4096
-4096
8192
0
4096
-4096
8192
0
4096
-4096
8192
0
4096
-4096
8192
0
4096
-4096
8192
0
4096
-4096
8192
0
4096
-4096
8192
0
4096
-4096
8192
0
4096
-4096
8192
0
4096
-4096
8192
0
4096
-4096
8192
0
4096
-4096
8192
0
4096
-4096
8192
0
4096
-4096
8192
0
4096
-4096
8192
0
4096
-4096
8192
0
4096
-4096
8192
0
4096
-4096
8192
0
4096
-4096
8192
0
4096
-4096
8192
0
4096
-4096
8192
0
4096
-4096
8192
0
4096
-4096
8192
0
4096
-4096
8192
0
4096
-4096
8192
0
4096
-4096
8192
0
4096
-4096
8192
0
4096
-4096
8192
0
4096
-4096
8192
0
4096
-4096
8192
0
4096
-4096
8192
0
4096
-4096
8192
0
4096
-4096
8192
0
4096
-4096
8192
0
4096
-4096
8192
0
4096
-4096
8192
0
4096
-4096
8192
0
4096
-4096
8192
0
4096
-4096
8192
0
4096
-4096
8192
0
4096
-4096
8192
0
4096
-4096
8192
0
4096
-4096
8192
0
4096
-4096
8192
0
4096
-4096
8192
0
4096
-4096
8192
0
4096
-4096
8192
0
4096
-4096
8192
0
4096
-4096
8192
0
4096
-4096
8192
0
4096
-4096
8192
0
4096
-4096
8192
0
4096
-4096
8192
0
4096
-4096
8192
0
4096
-4096
8192
0
4096
-4096
8192
0
4096
-4096
8192
0
4096
-4096
8192
0
4096
-4096
8192
0
4096
-4096
8192
0
4096
-4096
8192
0
4096
-4096
8192
0
4096
-4096
8192
0
4096
-4096
8192
0
4096
-4096
8192
0
4096
-4096
8192
0
4096
-4096
8192
0
4096
-4096
8192
0
4096
-4096
8192
0
4096
-4096
8192
0
4096
-4096
8192
0
4096
-4096
8192
0
4096
-4096
8192
0
4096
-4096
8192
0
4096
-4096
8192
0
4096
-4096
8192
0
4096
-4096
8192
0
4096
-4096
8192
0
4096
-4096
8192
0
4096
-4096
8192
0
4096
-4096
8192
0
4096
-4096
8192
0
4096
-4096
8192
0
4096
-4096
8192
0
4096
-4096
8192
0
4096
-4096
8192
0
4096
-4096
8192
0
4096
-4096
8192
0
4096
-4096
8192
0
4096
-4096
8192
0
4096
-4096
8192
0
4096
-4096
8192
0
4096
-4096
8192
0
4096
-4096
8192
0
4096
-4096
8192
0
4096
-4096
8192
0
4096
-4096
8192
0
4096
-4096
8192
0
4096
-4096
8192
0
4096
-4096
8192
0
4096
-4096
8192
0
4096
-4096
8192
0
4096
-4096
8192
0
4096
-4096
8192
0
4096
-4096
8192
0
4096
-4096
8192
0
4096
-4096
8192
0
4096
-4096
8192
0
4096
-4096
8192
0
4096
-4096
8192
0
4096
-4096
8192
0
4096
-4096
8192
0
4096
-4096
8192
0
4096
-4096
8192
0
4096
-4096
8192
0
4096
-4096
8192
0
4096
-4096
8192
0
4096
-4096
8192
0
4096
-4096
8192
0
4096
-4096
8192
0
4096
-4096
8192
0
4096
-4096
8192
0
4096
-4096
8192
0
4096
-4096
8192
0
4096
-4096
8192
0
4096
-4096
8192
0
4096
-4096
8192
0
4096
-4096
8192
0
4096
-4096
8192
0
4096
-4096
8192
0
4096
-4096
8192
0
4096
-4096
8192
0
4096
-4096
8192
0
4096
-4096
8192
0
4096
-4096
8192
0
4096
-4096
8192
0
4096
-4096
8192
0
4096
-4096
8192
0
4096
-4096
8192
0
4096
-4096
8192
0
4096
-4096
8192
0
4096
-4096
8192
0
4096
-4096
8192
0
4096
-4096
8192
0
4096
-4096
8192
0
4096
-4096
8192
0
4096
-4096
8192
0
4096
-4096
8192
0
4096
-4096
8192
0
4096
-4096
8192
0
4096
-4096
8192
0
4096
-4096
8192
0
4096
-4096
8192
0
4096
-4096
8192
0
4096
-4096
8192
0
4096
-4096
8192
0
4096
-4096
8192
0
4096
-4096
8192
0
4096
-4096
8192
0
4096
-4096
8192
0
4096
-4096
8192
0
4096
-4096
8192
0
4096
-4096
8192
0
4096
-4096
8192
0
4096
-4096
8192
0
4096
-4096
8192
0
4096
-4096
8192
0
4096
-4096
8192
0
4096
-4096
8192
0
4096
-4096
8192
0
4096
-4096
8192
0
4096
-4096
8192
0
4096
-4096
8192
0
4096
-4096
8192
0
4096
-4096
8192
0
4096
-4096
8192
0
4096
-4096
8192
0
4096
-4096
8192
0
4096
-4096
8192
0
4096
-4096
8192
0
4096
-4096
8192
0
4096
-4096
8192
0
4096
-4096
8192
0
4096
-4096
8192
0
4096
-4096
8192
0
4096
-4096
8192
0
4096
-4096
8192
0
4096
-4096
8192
0
4096
-4096
8192
0
4096
-4096
8192
0
4096
-4096
8192
0
4096
-4096
8192
0
4096
-4096
8192
0
4096
-4096
8192
0
4096
-4096
8192
0
4096
-4096
8192
0
4096
-4096
8192
0
4096
-4096
8192
0
4096
-4096
8192
0
4096
-4096
8192
0
4096
-4096
8192
0
4096
-4096
8192
0
4096
-4096
8192
0
4096
-4096
8192
0
4096
-4096
8192
0
4096
-4096
8192
0
4096
-4096
8192
0
4096
-4096
8192
0
4096
-4096
8192
0
4096
-4096
8192
0
4096
-4096
8192
0
4096
-4096
8192
0
4096
-4096
8192
0
4096
-4096
8192
0
4096
-4096
8192
0
4096
-4096
8192
0
4096
-4096
8192
0
4096
-4096
8192
0
4096
-4096
8192
0
4096
-4096
8192
0
4096
-4096
8192
0
4096
-4096
8192
0
4096
-4096
8192
0
4096
-4096
8192
0
4096
-4096
8192
0
4096
-4096
8192
0
4096
-4096
8192
0
4096
-4096
8192
0
4096
-4096
8192
0
4096
-4096
8192
0
4096
-4096
8192
0
4096
-4096
8192
0
4096
-4096
8192
0
4096
-4096
8192
0
4096
-4096
8192
0
4096
-4096
8192
0
4096
-4096
8192
0
4096
-4096
8192
0
4096
-4096
8192
0
4096
-4096
8192
0
4096
-4096
8192
0
4096
-4096
8192
0
4096
-4096
8192
0
4096
-4096
8192
0
4096
-4096
8192
0
4096
-4096
8192
0
4096
-4096
8192
0
4096
-4096
8192
0
4096
-4096
8192
0
4096
-4096
8192
0
4096
-4096
8192
0
4096
-4096
8192
0
4096
-4096
8192
0
4096
-4096
8192
0
4096
-4096
8192
0
4096
-4096
8192
0
4096
-4096
8192
0
4096
-4096
8192
0
4096
-4096
8192
0
4096
-4096
8192
0
4096
-4096
8192
0
4096
-4096
8192
0
4096
-4096
8192
0
4096
-4096
8192
0
4096
-4096
8192
0
4096
-4096
8192
0
4096
-4096
8192
0
4096
-4096
8192
0
4096
-4096
8192
0
4096
-4096
8192
0
4096
-4096
8192
0
4096
-4096
8192
0
4096
-4096
8192
0
4096
-4096
8192
0
4096
-4096
8192
0
4096
-4096
8192
0
4096
-4096
8192
0
4096
-4096
8192
0
4096
-4096
8192
0
4096
-4096
8192
0
4096
-4096
8192
0
4096
-4096
8192
0
4096
-4096
8192
0
4096
-4096
8192
0
4096
-4096
8192
0
4096
-4096
8192
0
4096
-4096
8192
0
4096
-4096
8192
0
4096
-4096
8192
0
4096
-4096
8192
0
4096
-4096
8192
0
4096
-4096
8192
0
4096
-4096
8192
0
4096
-4096
8192
0
4096
-4096
8192
0
4096
-4096
8192
0
4096
-4096
8192
0
4096
-4096
8192
0
4096
-4096
8192
0
4096
-4096
8192
0
4096
-4096
8192
0
4096
-4096
8192
0
4096
-4096
8192
0
4096
-4096
8192
0
4096
-4096
8192
0
4096
-4096
8192
0
4096
-4096
8192
0
4096
-4096
8192
0
4096
-4096
8192
0
4096
-4096
8192
0
4096
-4096
8192
0
4096
-4096
8192
0
4096
-4096
8192
0
4096
-4096
8192
0
4096
-4096
8192
0
4096
-4096
8192
0
4096
-4096
8192
0
4096
-4096
8192
0
4096
-4096
8192
0
4096
-4096
8192
0
4096
-4096
8192
0
4096
-4096
8192
0
4096
-4096
8192
0
4096
-4096
8192
0
4096
-4096
8192
0
4096
-4096
8192
0
4096
-4096
8192
0
4096
-4096
8192
0
4096
-4096
8192
0
4096
-4096
8192
0
4096
-4096
8192
0
4096
-4096
8192
0
4096
-4096
8192
0
4096
-4096
8192
0
4096
-4096
8192
0
4096
-4096
8192
0
4096
-4096
8192
0
4096
-4096
8192
0
4096
-4096
8192
0
4096
-4096
8192
0
4096
-4096
8192
0
4096
-4096
8192
0
4096
-4096
8192
0
4096
-4096
8192
0
4096
-4096
8192
0
4096
-4096
8192
0
4096
-4096
8192
0
4096
-4096
8192
0
4096
-4096
8192
0
4096
-4096
8192
0
4096
-4096
8192
0
4096
-4096
8192
0
4096
-4096
8192
0
4096
-4096
8192
0
4096
-4096
8192
0
4096
-4096
8192
0
4096
-4096
8192
0
4096
-4096
8192
0
4096
-4096
8192
0
4096
-4096
8192
0
4096
-4096
8192
0
4096
-4096
8192
0
4096
-4096
8192
0
4096
-4096
8192
0
4096
-4096
8192
0
4096
-4096
8192
0
4096
-4096
8192
0
4096
-4096
8192
0
4096
-4096
8192
0
4096
-4096
8192
0
4096
-4096
8192
0
4096
-4096
8192
0
4096
-4096
8192
0
4096
-4096
8192
0
4096
-4096
8192
0
4096
-4096
8192
0
4096
-4096
8192
0
4096
-4096
8192
0
4096
-4096
8192
0
4096
-4096
8192
0
4096
-4096
8192
0
4096
-4096
8192
0
4096
-4096
8192
0
4096
-4096
8192
0
4096
-4096
8192
0
4096
-4096
8192
0
4096
-4096
8192
0
4096
-4096
8192
0
4096
-4096
8192
0
4096
-4096
8192
0
4096
-4096
8192
0
4096
-4096
8192
0
4096
-4096
8192
0
4096
-4096
8192
0
4096
-4096
8192
0
4096
-4096
8192
0
4096
-4096
8192
0
4096
-4096
8192
0
4096
-4096
8192
0
4096
-4096
8192
0
4096
-4096
8192
0
4096
-4096
8192
0
4096
-4096
8192
0
4096
-4096
8192
0
4096
-4096
8192
0
4096
-4096
8192
0
4096
-4096
8192
0
4096
-4096
8192
0
4096
-4096
8192
0
4096
-4096
8192
0
4096
-4096
8192
0
4096
-4096
8192
0
4096
-4096
8192
0
4096
-4096
8192
0
4096
-4096
8192
0
4096
-4096
8192
0
4096
-4096
8192
0
4096
-4096
8192
0
4096
-4096
8192
0
4096
-4096
8192
0
4096
-4096
8192
0
4096
-4096
8192
0
4096
-4096
8192
0
4096
-4096
8192
0
4096
-4096
8192
0
4096
-4096
8192
0
4096
-4096
8192
0
4096
-4096
8192
0
4096
-4096
8192
0
4096
-4096
8192
0
4096
-4096
8192
0
4096
-4096
8192
0
4096
-4096
8192
0
4096
-4096
8192
0
4096
-4096
8192
0
4096
-4096
8192
0
4096
-4096
8192
0
4096
-4096
8192
0
4096
-4096
8192
0
4096
-4096
8192
0
4096
-4096
8192
0
4096
-4096
8192
0
4096
-4096
8192
0
4096
-4096
8192
0
4096
-4096
8192
0
4096
-4096
8192
0
4096
-4096
8192
0
4096
-4096
8192
0
4096
-4096
8192
0
4096
-4096
8192
0
4096
-4096
8192
0
4096
-4096
8192
0
4096
-4096
8192
0
4096
-4096
8192
0
4096
-4096
8192
0
4096
-4096
8192
0
4096
-4096
8192
0
4096
-4096
8192
0
4096
-4096
8192
0
4096
-4096
8192
0
4096
-4096
8192
0
4096
-4096
8192
0
4096
-4096
8192
0
4096
-4096
8192
0
4096
-4096
8192
0
4096
-4096
8192
0
4096
-4096
8192
0
4096
-4096
8192
0
4096
-4096
8192
0
4096
-4096
8192
0
4096
-4096
8192
0
4096
-4096
8192
0
4096
-4096
8192
0
4096
-4096
8192
0
4096
-4096
8192
0
4096
-4096
8192
0
4096
-4096
8192
0
4096
-4096
8192
0
4096
-4096
8192
0
4096
-4096
8192
0
4096
-4096
8192
0
4096
-4096
8192
0
4096
-4096
8192
0
4096
-4096
8192
0
4096
-4096
8192
0
4096
-4096
8192
0
4096
-4096
8192
0
4096
-4096
8192
0
4096
-4096
8192
0
4096
-4096
8192
0
4096
-4096
8192
0
4096
-4096
8192
0
4096
-4096
8192
0
4096
-4096
8192
0
4096
-4096
8192
0
4096
-4096
8192
0
4096
-4096
8192
0
4096
-4096
8192
0
4096
-4096
8192
0
4096
-4096
8192
0
4096
-4096
8192
0
4096
-4096
8192
0
4096
-4096
8192
0
4096
-4096
8192
0
4096
-4096
8192
0
4096
-4096
8192
0
4096
-4096
8192
0
4096
-4096
8192
0
4096
-4096
8192
0
4096
-4096
8192
0
4096
-4096
8192
0
4096
-4096
8192
0
4096
-4096
8192
0
4096
-4096
8192
0
4096
-4096
8192
0
4096
-4096
8192
0
4096
-4096
8192
0
4096
-4096
8192
0
4096
-4096
8192
0
4096
-4096
8192
0
4096
-4096
8192
0
4096
-4096
8192
0
4096
-4096
8192
0
4096
-4096
8192
0
4096
-4096
8192
0
4096
-4096
8192
0
4096
-4096
8192
0
4096
-4096
8192
0
4096
-4096
8192
0
4096
-4096
8192
0
4096
-4096
8192
0
4096
-4096
8192
0
4096
-4096
8192
0
4096
-4096
8192
0
4096
-4096
8192
0
4096
-4096
8192
0
4096
-4096
8192
0
4096
-4096
8192
0
4096
-4096
8192
0
4096
-4096
8192
0
4096
-4096
8192
0
4096
-4096
8192
0
4096
-4096
8192
0
4096
-4096
8192
0
4096
-4096
8192
0
4096
-4096
8192
0
4096
-4096
8192
0
4096
-4096
8192
0
4096
-4096
8192
0
4096
-4096
8192
0
4096
-4096
8192
0
4096
-4096
8192
0
4096
-4096
8192
0
4096
-4096
8192
0
4096
-4096
8192
0
4096
-4096
8192
0
4096
-4096
8192
0
4096
-4096
8192
0
4096
-4096
8192
0
4096
-4096
8192
0
4096
-4096
8192
0
4096
-4096
8192
0
4096
-4096
8192
0
4096
-4096
8192
0
4096
-4096
8192
0
4096
-4096
8192
0
4096
-4096
8192
0
4096
-4096
8192
0
4096
-4096
8192
0
4096
-4096
8192
0
4096
-4096
8192
0
4096
-4096
8192
0
4096
-4096
8192
0
4096
-4096
8192
0
4096
-4096
8192
0
4096
-4096
8192
0
4096
-4096
8192
0
4096
-4096
8192
0
4096
-4096
8192
0
4096
-4096
8192
0
4096
-4096
8192
0
4096
-4096
8192
0
4096
-4096
8192
0
4096
-4096
8192
0
4096
-4096
8192
0
4096
-4096
8192
0
4096
-4096
8192
0
4096
-4096
8192
0
4096
-4096
8192
0
4096
-4096
8192
0
4096
-4096
8192
0
4096
-4096
8192
0
4096
-4096
8192
0
4096
-4096
8192
0
4096
-4096
8192
0
4096
-4096
8192
0
4096
-4096
8192
0
4096
-4096
8192
0
4096
-4096
8192
0
4096
-4096
8192
0
4096
-4096
8192
0
4096
-4096
8192
0
4096
-4096
8192
0
4096
-4096
8192
0
4096
-4096
8192
0
4096
-4096
8192
0
4096
-4096
8192
0
4096
-4096
8192
0
4096
-4096
8192
0
4096
-4096
8192
0
4096
-4096
8192
0
4096
-4096
8192
0
4096
-4096
8192
0
4096
-4096
8192
0
4096
-4096
8192
0
4096
-4096
8192
0
4096
-4096
8192
0
4096
-4096
8192
0
4096
-4096
8192
0
4096
-4096
8192
0
4096
-4096
8192
0
4096
-4096
8192
0
4096
-4096
8192
0
4096
-4096
8192
0
4096
-4096
8192
0
4096
-4096
8192
0
4096
-4096
8192
0
4096
-4096
8192
0
4096
-4096
8192
0
4096
-4096
8192
0
4096
-4096
8192
0
4096
-4096
8192
0
4096
-4096
8192
0
4096
-4096
8192
0
4096
-4096
8192
0
4096
-4096
8192
0
4096
-4096
8192
0
4096
-4096
8192
0
4096
-4096
8192
0
4096
-4096
8192
0
4096
-4096
8192
0
4096
-4096
8192
0
4096
-4096
8192
0
4096
-4096
8192
0
4096
-4096
8192
0
4096
-4096
8192
0
4096
-4096
8192
0
4096
-4096
8192
0
4096
-4096
8192
0
4096
-4096
8192
0
4096
-4096
8192
0
4096
-4096
8192
0
4096
-4096
8192
0
4096
-4096
8192
0
4096
-4096
8192
0
4096
-4096
8192
0
4096
-4096
8192
0
4096
-4096
8192
0
4096
-4096
8192
0
4096
-4096
8192
0
4096
-4096
8192
0
4096
-4096
8192
0
4096
-4096
8192
0
4096
-4096
8192
0
4096
-4096
8192
0
4096
-4096
8192
0
4096
-4096
8192
0
4096
-4096
8192
0
4096
-4096
8192
0
4096
-4096
8192
0
4096
-4096
8192
0
4096
-4096
8192
0
4096
-4096
8192
0
4096
-4096
8192
0
4096
-4096
8192
0
4096
-4096
8192
0
4096
-4096
8192
0
4096
-4096
8192
0
4096
-4096
8192
0
4096
-4096
8192
0
4096
-4096
8192
0
4096
-4096
8192
0
4096
-4096
8192
0
4096
-4096
8192
0
4096
-4096
8192
0
4096
-4096
8192
0
4096
-4096
8192
0
4096
-4096
8192
0
4096
-4096
8192
0
4096
-4096
8192
0
4096
-4096
8192
0
4096
-4096
8192
0
4096
-4096
8192
0
4096
-4096
8192
0
4096
-4096
8192
0
4096
-4096
8192
0
4096
-4096
8192
0
4096
-4096
8192
0
4096
-4096
8192
0
4096
-4096
8192
0
4096
-4096
8192
0
4096
-4096
8192
0
4096
-4096
8192
0
4096
-4096
8192
0
4096
-4096
8192
0
4096
-4096
8192
0
4096
-4096
8192
0
4096
-4096
8192
0
4096
-4096
8192
0
4096
-4096
8192
0
4096
-4096
8192
0
4096
-4096
8192
0
4096
-4096
8192
0
4096
-4096
8192
0
4096
-4096
8192
0
4096
-4096
8192
0
4096
-4096
8192
0
4096
-4096
8192
0
4096
-4096
8192
0
4096
-4096
8192
0
4096
-4096
8192
0
4096
-4096
8192
0
4096
-4096
8192
0
4096
-4096
8192
0
4096
-4096
8192
0
4096
-4096
8192
0
4096
-4096
8192
0
4096
-4096
8192
0
4096
-4096
8192
0
4096
-4096
8192
0
4096
-4096
8192
0
4096
-4096
8192
0
4096
-4096
8192
0
4096
-4096
8192
0
4096
-4096
8192
0
4096
-4096
8192
0
4096
-4096
8192
0
4096
-4096
8192
0
4096
-4096
8192
0
4096
-4096
8192
0
4096
-4096
8192
0
4096
-4096
8192
0
4096
-4096
8192
0
4096
-4096
8192
0
4096
-4096
8192
0
4096
-4096
8192
0
4096
-4096
8192
0
4096
-4096
8192
0
4096
-4096
8192
0
4096
-4096
8192
0
4096
-4096
8192
0
4096
-4096
8192
0
4096
-4096
8192
0
4096
-4096
8192
0
4096
-4096
8192
0
4096
-4096
8192
0
4096
-4096
8192
0
4096
-4096
8192
0
4096
-4096
8192
0
4096
-4096
8192
0
4096
-4096
8192
0
4096
-4096
8192
0
4096
-4096
8192
0
4096
-4096
8192
0
4096
-4096
8192
0
4096
-4096
8192
0
4096
-4096
8192
0
4096
-4096
8192
0
4096
-4096
8192
0
4096
-4096
8192
0
4096
-4096
8192
0
4096
-4096
8192
0
4096
-4096
8192
0
4096
-4096
8192
0
4096
-4096
8192
0
4096
-4096
8192
0
4096
-4096
8192
0
4096
-4096
8192
0
4096
-4096
8192
0
4096
-4096
8192
0
4096
-4096
8192
0
4096
-4096
8192
0
4096
-4096
8192
0
4096
-4096
8192
0
4096
-4096
8192
0
4096
-4096
8192
0
4096
-4096
8192
0
4096
-4096
8192
0
4096
-4096
8192
0
4096
-4096
8192
0
4096
-4096
8192
0
4096
-4096
8192
0
4096
-4096
8192
0
4096
-4096
8192
0
4096
-4096
8192
0
4096
-4096
8192
0
4096
-4096
8192
0
4096
-4096
8192
0
4096
-4096
8192
0
4096
-4096
8192
0
4096
-4096
8192
0
4096
-4096
8192
0
4096
-4096
8192
0
4096
-4096
8192
0
4096
-4096
8192
0
4096
-4096
8192
0
4096
-4096
8192
0
4096
-4096
8192
0
4096
-4096
8192
0
4096
-4096
8192
0
4096
-4096
8192
0
4096
-4096
8192
0
4096
-4096
8192
0
4096
-4096
8192
0
4096
-4096
8192
0
4096
-4096
8192
0
4096
-4096
8192
0
4096
-4096
8192
0
4096
-4096
8192
0
4096
-4096
8192
0
4096
-4096
8192
0
4096
-4096
8192
0
4096
-4096
8192
0
4096
-4096
8192
0
4096
-4096
8192
0
4096
-4096
8192
0
4096
-4096
8192
0
4096
-4096
8192
0
4096
-4096
8192
0
4096
-4096
8192
0
4096
-4096
8192
0
4096
-4096
8192
0
4096
-4096
8192
0
4096
-4096
8192
0
4096
-4096
8192
0
4096
-4096
8192
0
4096
-4096
8192
0
4096
-4096
8192
0
4096
-4096
8192
0
4096
-4096
8192
0
4096
-4096
8192
0
4096
-4096
8192
0
4096
-4096
8192
0
4096
-4096
8192
0
4096
-4096
8192
0
4096
-4096
8192
0
4096
-4096
8192
0
4096
-4096
8192
0
4096
-4096
8192
0
4096
-4096
8192
0
4096
-4096
8192
0
4096
-4096
8192
0
4096
-4096
8192
0
4096
-4096
8192
0
4096
-4096
8192
0
4096
-4096
8192
0
4096
-4096
8192
0
4096
-4096
8192
0
4096
-4096
8192
0
4096
-4096
8192
0
4096
-4096
8192
0
4096
-4096
8192
0
4096
-4096
8192
0
4096
-4096
8192
0
4096
-4096
8192
0
4096
-4096
8192
0
4096
-4096
8192
0
4096
-4096
8192
0
4096
-4096
8192
0
4096
-4096
8192
0
4096
-4096
8192
0
4096
-4096
8192
0
4096
-4096
8192
0
4096
-4096
8192
0
4096
-4096
8192
0
4096
-4096
8192
0
4096
-4096
8192
0
4096
-4096
8192
0
4096
-4096
8192
0
4096
-4096
8192
0
4096
-4096
8192
0
4096
-4096
8192
0
4096
-4096
8192
0
4096
-4096
8192
0
4096
-4096
8192
0
4096
-4096
8192
0
4096
-4096
8192
0
4096
-4096
8192
0
4096
-4096
8192
0
4096
-4096
8192
0
4096
-4096
8192
0
4096
-4096
8192
0
4096
-4096
8192
0
4096
-4096
8192
0
4096
-4096
8192
0
4096
-4096
8192
0
4096
-4096
8192
0
4096
-4096
8192
0
4096
-4096
8192
0
4096
-4096
8192
0
4096
-4096
8192
0
4096
-4096
8192
0
4096
-4096
8192
0
4096
-4096
8192
0
4096
-4096
8192
0
4096
-4096
8192
0
4096
-4096
8192
0
4096
-4096
8192
0
4096
-4096
8192
0
4096
-4096
8192
0
4096
-4096
8192
0
4096
-4096
8192
0
4096
-4096
8192
0
4096
-4096
8192
0
4096
-4096
8192
0
4096
-4096
8192
0
4096
-4096
8192
0
4096
-4096
8192
0
4096
-4096
8192
0
4096
-4096
8192
0
4096
-4096
8192
0
4096
-4096
8192
0
4096
-4096
8192
0
4096
-4096
8192
0
4096
-4096
8192
0
4096
-4096
8192
0
4096
-4096
8192
0
4096
-4096
8192
0
4096
-4096
8192
0
4096
-4096
8192
0
4096
-4096
8192
0
4096
-4096
8192
0
4096
-4096
8192
0
4096
-4096
8192
0
4096
-4096
8192
0
4096
-4096
8192
0
4096
-4096
8192
0
4096
-4096
8192
0
4096
-4096
8192
0
4096
-4096
8192
0
4096
-4096
8192
0
4096
-4096
8192
0
4096
-4096
8192
0
4096
-4096
8192
0
4096
-4096
8192
0
4096
-4096
8192
0
4096
-4096
8192
0
4096
-4096
8192
0
4096
-4096
8192
0
4096
-4096
8192
0
4096
-4096
8192
0
4096
-4096
8192
0
4096
-4096
8192
0
4096
-4096
8192
0
4096
-4096
8192
0
4096
-4096
8192
0
4096
-4096
8192
0
4096
-4096
8192
0
4096
-4096
8192
0
4096
-4096
8192
0
4096
-4096
8192
0
4096
-4096
8192
0
4096
-4096
8192
0
4096
-4096
8192
0
4096
-4096
8192
0
4096
-4096
8192
0
4096
-4096
8192
0
4096
-4096
8192
0
4096
-4096
8192
0
4096
-4096
8192
0
4096
-4096
8192
0
4096
-4096
8192
0
4096
-4096
8192
0
4096
-4096
8192
0
4096
-4096
8192
0
4096
-4096
8192
0
4096
-4096
8192
0
4096
-4096
8192
0
4096
-4096
8192
0
4096
-4096
8192
0
4096
-4096
8192
0
4096
-4096
8192
0
4096
-4096
8192
0
4096
-4096
8192
0
4096
-4096
8192
0
4096
-4096
8192
0
4096
-4096
8192
0
4096
-4096
8192
0
4096
-4096
8192
0
4096
-4096
8192
0
4096
-4096
8192
0
4096
-4096
8192
0
4096
-4096
8192
0
4096
-4096
8192
0
4096
-4096
8192
0
4096
-4096
8192
0
4096
-4096
8192
0
4096
-4096
8192
0
4096
-4096
8192
0
4096
-4096
8192
0
4096
-4096
8192
0
4096
-4096
8192
0
4096
-4096
8192
0
4096
-4096
8192
0
4096
-4096
8192
0
4096
-4096
8192
0
4096
-4096
8192
0
4096
-4096
8192
0
4096
-4096
8192
0
4096
-4096
8192
0
4096
-4096
8192
0
4096
-4096
8192
0
4096
-4096
8192
0
4096
-4096
8192
0
4096
-4096
8192
0
4096
-4096
8192
0
4096
-4096
8192
0
4096
-4096
8192
0
4096
-4096
8192
0
4096
-4096
8192
0
4096
-4096
8192
0
4096
-4096
8192
0
4096
-4096
8192
0
4096
-4096
8192
0
4096
-4096
8192
0
4096
-4096
8192
0
4096
-4096
8192
0
4096
-4096
8192
0
4096
-4096
8192
0
4096
-4096
8192
0
4096
-4096
8192
0
4096
-4096
8192
0
4096
-4096
8192
0
4096
-4096
8192
0
4096
-4096
8192
0
4096
-4096
8192
0
4096
-4096
8192
0
4096
-4096
8192
0
4096
-4096
8192
0
4096
-4096
8192
0
4096
-4096
8192
0
4096
-4096
8192
0
4096
-4096
8192
0
4096
-4096
8192
0
4096
-4096
8192
0
4096
-4096
8192
0
4096
-4096
8192
0
4096
-4096
8192
0
4096
-4096
8192
0
4096
-4096
8192
0
4096
-4096
8192
0
4096
-4096
8192
0
4096
-4096
8192
0
4096
-4096
8192
0
4096
-4096
8192
0
4096
-4096
8192
0
4096
-4096
8192
0
4096
-4096
8192
0
4096
-4096
8192
0
4096
-4096
8192
0
4096
-4096
8192
0
4096
-4096
8192
0
4096
-4096
8192
0
4096
-4096
8192
0
4096
-4096
8192
0
4096
-4096
8192
0
4096
-4096
8192
0
4096
-4096
8192
0
4096
-4096
8192
0
4096
-4096
8192
0
4096
-4096
8192
0
4096
-4096
8192
0
4096
-4096
8192
0
4096
-4096
8192
0
4096
-4096
8192
0
4096
-4096
8192
0
4096
-4096
8192
0
4096
-4096
8192
0
4096
-4096
8192
0
4096
-4096
8192
0
4096
-4096
8192
0
4096
-4096
8192
0
4096
-4096
8192
0
4096
-4096
8192
0
4096
-4096
8192
0
4096
-4096
8192
0
4096
-4096
8192
0
4096
-4096
8192
0
4096
-4096
8192
0
4096
-4096
8192
0
4096
-4096
8192
0
4096
-4096
8192
0
4096
-4096
8192
0
4096
-4096
8192
0
4096
-4096
8192
0
4096
-4096
8192
0
4096
-4096
8192
0
4096
-4096
8192
0
4096
-4096
8192
0
4096
-4096
8192
0
4096
-4096
8192
0
4096
-4096
8192
0
4096
-4096
8192
0
4096
-4096
8192
0
4096
-4096
8192
0
4096
-4096
8192
0
4096
-4096
8192
0
4096
-4096
8192
0
4096
-4096
8192
0
4096
-4096
8192
0
4096
-4096
8192
0
4096
-4096
8192
0
4096
-4096
8192
0
4096
-4096
8192
0
4096
-4096
8192
0
4096
-4096
8192
0
4096
-4096
8192
0
4096
-4096
8192
0
4096
-4096
8192
0
4096
-4096
8192
0
4096
-4096
8192
0
4096
-4096
8192
0
4096
-4096
8192
0
4096
-4096
8192
0
4096
-4096
8192
0
4096
-4096
8192
0
4096
-4096
8192
0
4096
-4096
8192
0
4096
-4096
8192
0
4096
-4096
8192
0
4096
-4096
8192
0
4096
-4096
8192
0
4096
-4096
8192
0
4096
-4096
8192
0
4096
-4096
8192
0
4096
-4096
8192
0
4096
-4096
8192
0
4096
-4096
8192
0
4096
-4096
8192
0
4096
-4096
8192
0
4096
-4096
8192
0
4096
-4096
8192
0
4096
-4096
8192
0
4096
-4096
8192
0
4096
-4096
8192
0
4096
-4096
8192
0
4096
-4096
8192
0
4096
-4096
8192
0
4096
-4096
8192
0
4096
-4096
8192
0
4096
-4096
8192
0
4096
-4096
8192
0
4096
-4096
8192
0
4096
-4096
8192
0
4096
-4096
8192
0
4096
-4096
8192
0
4096
-4096
8192
0
4096
-4096
8192
0
4096
-4096
8192
0
4096
-4096
8192
0
4096
-4096
8192
0
4096
-4096
8192
0
4096
-4096
8192
0
4096
-4096
8192
0
4096
-4096
8192
0
4096
-4096
8192
0
4096
-4096
8192
0
4096
-4096
8192
0
4096
-4096
8192
0
4096
-4096
8192
0
4096
-4096
8192
0
4096
-4096
8192
0
4096
-4096
8192
0
4096
-4096
8192
0
4096
-4096
8192
0
4096
-4096
8192
0
4096
-4096
8192
0
4096
-4096
8192
0
4096
-4096
8192
0
4096
-4096
8192
0
4096
-4096
8192
0
4096
-4096
8192
0
4096
-4096
8192
0
4096
-4096
8192
0
4096
-4096
8192
0
4096
-4096
8192
0
4096
-4096
8192
0
4096
-4096
8192
0
4096
-4096
8192
0
4096
-4096
8192
0
4096
-4096
8192
0
4096
-4096
8192
0
4096
-4096
8192
0
4096
-4096
8192
0
4096
-4096
8192
0
4096
-4096
8192
0
4096
-4096
8192
0
4096
-4096
8192
0
4096
-4096
8192
0
4096
-4096
8192
0
4096
-4096
8192
0
4096
-4096
8192
0
4096
-4096
8192
0
4096
-4096
8192
0
4096
-4096
8192
0
4096
-4096
8192
0
4096
-4096
8192
0
4096
-4096
8192
0
4096
-4096
8192
0
4096
-4096
8192
0
4096
-4096
8192
0
4096
-4096
8192
0
4096
-4096
8192
0
4096
-4096
8192
0
4096
-4096
8192
0
4096
-4096
8192
0
4096
-4096
8192
0
4096
-4096
8192
0
4096
-4096
8192
0
4096
-4096
8192
0
4096
-4096
8192
0
4096
-4096
8192
0
4096
-4096
8192
0
4096
-4096
8192
0
4096
-4096
8192
0
4096
-4096
8192
0
4096
-4096
8192
0
4096
-4096
8192
0
4096
-4096
8192
0
4096
-4096
8192
0
4096
-4096
8192
0
4096
-4096
8192
0
4096
-4096
8192
0
4096
-4096
8192
0
4096
-4096
8192
0
4096
-4096
8192
0
4096
-4096
8192
0
4096
-4096
8192
0
4096
-4096
8192
0
4096
-4096
8192
0
4096
-4096
8192
0
4096
-4096
8192
0
4096
-4096
8192
0
4096
-4096
8192
0
4096
-4096
8192
0
4096
-4096
8192
0
4096
-4096
8192
0
4096
-4096
8192
0
4096
-4096
8192
0
4096
-4096
8192
0
4096
-4096
8192
0
4096
-4096
8192
0
4096
-4096
8192
0
4096
-4096
8192
0
4096
-4096
8192
0
4096
-4096
8192
0
4096
-4096
8192
0
4096
-4096
8192
0
4096
-4096
8192
0
4096
-4096
8192
0
4096
-4096
8192
0
4096
-4096
8192
0
4096
-4096
8192
0
4096
-4096
8192
0
4096
-4096
8192
0
4096
-4096
8192
0
4096
-4096
8192
0
4096
-4096
8192
0
4096
-4096
8192
0
4096
-4096
8192
0
4096
-4096
8192
0
4096
-4096
8192
0
4096
-4096
8192
0
4096
-4096
8192
0
4096
-4096
8192
0
4096
-4096
8192
0
4096
-4096
8192
0
4096
-4096
8192
0
4096
-4096
8192
0
4096
-4096
8192
0
4096
-4096
8192
0
4096
-4096
8192
0
4096
-4096
8192
0
4096
-4096
8192
0
4096
-4096
8192
0
4096
-4096
8192
0
4096
-4096
8192
0
4096
-4096
8192
0
4096
-4096
8192
0
4096
-4096
8192
0
4096
-4096
8192
0
4096
-4096
8192
0
4096
-4096
8192
0
4096
-4096
8192
0
4096
-4096
8192
0
4096
-4096
8192
0
4096
-4096
8192
0
4096
-4096
8192
0
4096
-4096
8192
0
4096
-4096
8192
0
4096
-4096
8192
0
4096
-4096
8192
0
4096
-4096
8192
0
4096
-4096
8192
0
4096
-4096
8192
0
4096
-4096
8192
0
4096
-4096
8192
0
4096
-4096
8192
0
4096
-4096
8192
0
4096
-4096
8192
0
4096
-4096
8192
0
4096
-4096
8192
0
4096
-4096
8192
0
4096
-4096
8192
0
4096
-4096
8192
0
4096
-4096
8192
0
4096
-4096
8192
0
4096
-4096
8192
0
4096
-4096
8192
0
4096
-4096
8192
0
4096
-4096
8192
0
4096
-4096
8192
0
4096
-4096
8192
0
4096
-4096
8192
0
4096
-4096
8192
0
4096
-4096
8192
0
4096
-4096
8192
0
4096
-4096
8192
0
4096
-4096
8192
0
4096
-4096
8192
0
4096
-4096
8192
0
4096
-4096
8192
0
4096
-4096
8192
0
4096
-4096
8192
0
4096
-4096
8192
0
4096
-4096
8192
0
4096
-4096
8192
0
4096
-4096
8192
0
4096
-4096
8192
0
4096
-4096
8192
0
4096
-4096
8192
0
4096
-4096
8192
0
4096
-4096
8192
0
4096
-4096
8192
0
4096
-4096
8192
0
4096
-4096
8192
0
4096
-4096
8192
0
4096
-4096
8192
0
4096
-4096
8192
0
4096
-4096
8192
0
4096
-4096
8192
0
4096
-4096
8192
0
4096
-4096
8192
0
4096
-4096
8192
0
4096
-4096
8192
0
4096
-4096
8192
0
4096
-4096
8192
0
4096
-4096
8192
0
4096
-4096
8192
0
4096
-4096
8192
0
4096
-4096
8192
0
4096
-4096
8192
0
4096
-4096
8192
0
4096
-4096
8192
0
4096
-4096
8192
0
4096
-4096
8192
0
4096
-4096
8192
0
4096
-4096
8192
0
4096
-4096
8192
0
4096
-4096
8192
0
4096
-4096
8192
0
4096
-4096
8192
0
4096
-4096
8192
0
4096
-4096
8192
0
4096
-4096
8192
0
4096
-4096
8192
0
4096
-4096
8192
0
4096
-4096
8192
0
4096
-4096
8192
0
4096
-4096
8192
0
4096
-4096
8192
0
4096
-4096
8192
0
4096
-4096
8192
0
4096
-4096
8192
0
4096
-4096
8192
0
4096
-4096
8192
0
4096
-4096
8192
0
4096
-4096
8192
0
4096
-4096
8192
0
4096
-4096
8192
0
4096
-4096
8192
0
4096
-4096
8192
0
4096
-4096
8192
0
4096
-4096
8192
0
4096
-4096
8192
0
4096
-4096
8192
0
4096
-4096
8192
0
4096
-4096
8192
0
4096
-4096
8192
0
4096
-4096
8192
0
4096
-4096
8192
0
4096
-4096
8192
0
4096
-4096
8192
0
4096
-4096
8192
0
4096
-4096
8192
0
4096
-4096
8192
0
4096
-4096
8192
0
4096
-4096
8192
0
4096
-4096
8192
0
4096
-4096
8192
0
4096
-4096
8192
0
4096
-4096
8192
0
4096
-4096
8192
0
4096
-4096
8192
0
4096
-4096
8192
0
4096
-4096
8192
0
4096
-4096
8192
0
4096
-4096
8192
0
4096
-4096
8192
0
4096
-4096
8192
0
4096
-4096
8192
0
4096
-4096
8192
0
4096
-4096
8192
0
4096
-4096
8192
0
4096
-4096
8192
0
4096
-4096
8192
0
4096
-4096
8192
0
4096
-4096
8192
0
4096
-4096
8192
0
4096
-4096
8192
0
4096
-4096
8192
0
4096
-4096
8192
0
4096
-4096
8192
0
4096
-4096
8192
0
4096
-4096
8192
0
4096
-4096
8192
0
4096
-4096
8192
0
4096
-4096
8192
0
4096
-4096
8192
0
4096
-4096
8192
0
4096
-4096
8192
0
4096
-4096
8192
0
4096
-4096
8192
0
4096
-4096
8192
0
4096
-4096
8192
0
4096
-4096
8192
0
4096
-4096
8192
0
4096
-4096
8192
0
4096
-4096
8192
0
4096
-4096
8192
0
4096
-4096
8192
0
4096
-4096
8192
0
4096
-4096
8192
0
4096
-4096
8192
0
4096
-4096
8192
0
4096
-4096
8192
0
4096
-4096
8192
0
4096
-4096
8192
0
4096
-4096
8192
0
4096
-4096
8192
0
4096
-4096
8192
0
4096
-4096
8192
0
4096
-4096
8192
0
4096
-4096
8192
0
4096
-4096
8192
0
4096
-4096
8192
0
4096
-4096
8192
0
4096
-4096
8192
0
4096
-4096
8192
0
4096
-4096
8192
0
4096
-4096
8192
0
4096
-4096
8192
0
4096
-4096
8192
0
4096
-4096
8192
0
4096
-4096
8192
0
4096
-4096
8192
0
4096
-4096
8192
0
4096
-4096
8192
0
4096
-4096
8192
0
4096
-4096
8192
0
4096
-4096
8192
0
4096
-4096
8192
0
4096
-4096
8192
0
4096
-4096
8192
0
4096
-4096
8192
0
4096
-4096
8192
0
4096
-4096
8192
0
4096
-4096
8192
0
4096
-4096
8192
0
4096
-4096
8192
0
4096
-4096
8192
0
4096
-4096
8192
0
4096
-4096
8192
0
4096
-4096
8192
0
4096
-4096
8192
0
4096
-4096
8192
0
4096
-4096
8192
0
4096
-4096
8192
0
4096
-4096
8192
0
4096
-4096
8192
0
4096
-4096
8192
0
4096
-4096
8192
0
4096
-4096
8192
0
4096
-4096
8192
0
4096
-4096
8192
0
4096
-4096
8192
0
4096
-4096
8192
0
4096
-4096
8192
0
4096
-4096
8192
0
4096
-4096
8192
0
4096
-4096
8192
0
4096
-4096
8192
0
4096
-4096
8192
0
4096
-4096
8192
0
4096
-4096
8192
0
4096
-4096
8192
0
4096
-4096
8192
0
4096
-4096
8192
0
4096
-4096
8192
0
4096
-4096
8192
0
4096
-4096
8192
0
4096
-4096
8192
0
4096
-4096
8192
0
4096
-4096
8192
0
4096
-4096
8192
0
4096
-4096
8192
0
4096
-4096
8192
0
4096
-4096
8192
0
4096
-4096
8192
0
4096
-4096
8192
0
4096
-4096
8192
0
4096
-4096
8192
0
4096
-4096
8192
0
4096
-4096
8192
0
4096
-4096
8192
0
4096
-4096
8192
0
4096
-4096
8192
0
4096
-4096
8192
0
4096
-4096
8192
0
4096
-4096
8192
0
4096
-4096
8192
0
4096
-4096
8192
0
4096
-4096
8192
0
4096
-4096
8192
0
4096
-4096
8192
0
4096
-4096
8192
0
4096
-4096
8192
0
4096
-4096
8192
0
4096
-4096
8192
0
4096
-4096
8192
0
4096
-4096
8192
0
4096
-4096
8192
0
4096
-4096
8192
0
4096
-4096
8192
0
4096
-4096
8192
0
4096
-4096
8192
0
4096
-4096
8192
0
4096
-4096
8192
0
4096
-4096
8192
0
4096
-4096
8192
0
4096
-4096
8192
0
4096
-4096
8192
0
4096
-4096
8192
0
4096
-4096
8192
0
4096
-4096
8192
0
4096
-4096
8192
0
4096
-4096
8192
0
4096
-4096
8192
0
4096
-4096
8192
0
4096
-4096
8192
0
4096
-4096
8192
0
4096
-4096
8192
0
4096
-4096
8192
0
4096
-4096
8192
0
4096
-4096
8192
0
4096
-4096
8192
0
4096
-4096
8192
0
4096
-4096
8192
0
4096
-4096
8192
0
4096
-4096
8192
0
4096
-4096
8192
0
4096
-4096
8192
0
4096
-4096
8192
0
4096
-4096
8192
0
4096
-4096
8192
0
4096
-4096
8192
0
4096
-4096
8192
0
4096
-4096
8192
0
4096
-4096
8192
0
4096
-4096
8192
0
4096
-4096
8192
0
4096
-4096
8192
0
4096
-4096
8192
0
4096
-4096
8192
0
4096
-4096
8192
0
4096
-4096
8192
0
4096
-4096
8192
0
4096
-4096
8192
0
4096
-4096
8192
0
4096
-4096
8192
0
4096
-4096
8192
0
4096
-4096
8192
0
4096
-4096
8192
0
4096
-4096
8192
0
4096
-4096
8192
0
4096
-4096
8192
0
4096
-4096
8192
0
4096
-4096
8192
0
4096
-4096
8192
0
4096
-4096
8192
0
4096
-4096
8192
0
4096
-4096
8192
0
4096
-4096
8192
0
4096
-4096
8192
0
4096
-4096
8192
0
4096
-4096
8192
0
4096
-4096
8192
0
4096
-4096
8192
0
4096
-4096
8192
0
4096
-4096
8192
0
4096
-4096
8192
0
4096
-4096
8192
0
4096
-4096
8192
0
4096
-4096
8192
0
4096
-4096
8192
0
4096
-4096
8192
0
4096
-4096
8192
0
4096
-4096
8192
0
4096
-4096
8192
0
4096
-4096
8192
0
4096
-4096
8192
0
4096
-4096
8192
0
4096
-4096
8192
0
4096
-4096
8192
0
4096
-4096
8192
0
4096
-4096
8192
0
4096
-4096
8192
0
4096
-4096
8192
0
4096
-4096
8192
0
4096
-4096
8192
0
4096
-4096
8192
0
4096
-4096
8192
0
4096
-4096
8192
0
4096
-4096
8192
0
4096
-4096
8192
0
4096
-4096
8192
0
4096
-4096
8192
0
4096
-4096
8192
0
4096
-4096
8192
0
4096
-4096
8192
0
4096
-4096
8192
0
4096
-4096
8192
0
4096
-4096
8192
0
4096
-4096
8192
0
4096
-4096
8192
0
4096
-4096
8192
0
4096
-4096
8192
0
4096
-4096
8192
0
4096
-4096
8192
0
4096
-4096
8192
0
4096
-4096
8192
0
4096
-4096
8192
0
4096
-4096
8192
0
4096
-4096
8192
0
4096
-4096
8192
0
4096
-4096
8192
0
4096
-4096
8192
0
4096
-4096
8192
0
4096
-4096
8192
0
4096
-4096
8192
0
4096
-4096
8192
0
4096
-4096
8192
0
4096
-4096
8192
0
4096
-4096
8192
0
4096
-4096
8192
0
4096
-4096
8192
0
4096
-4096
8192
0
4096
-4096
8192
0
4096
-4096
8192
0
4096
-4096
8192
0
4096
-4096
8192
0
4096
-4096
8192
0
4096
-4096
8192
0
4096
-4096
8192
0
4096
-4096
8192
0
4096
-4096
8192
0
4096
-4096
8192
0
4096
-4096
8192
0
4096
-4096
8192
0
4096
-4096
8192
0
4096
-4096
8192
0
4096
-4096
8192
0
4096
-4096
8192
0
4096
-4096
8192
0
4096
-4096
8192
0
4096
-4096
8192
0
4096
-4096
8192
0
4096
-4096
8192
0
4096
-4096
8192
0
4096
-4096
8192
0
4096
-4096
8192
0
4096
-4096
8192
0
4096
-4096
8192
0
4096
-4096
8192
0
4096
-4096
8192
0
4096
-4096
8192
0
4096
-4096
8192
0
4096
-4096
8192
0
4096
-4096
8192
0
4096
-4096
8192
0
4096
-4096
8192
0
4096
-4096
8192
0
4096
-4096
8192
0
4096
-4096
8192
0
4096
-4096
8192
0
4096
-4096
8192
0
4096
-4096
8192
0
4096
-4096
8192
0
4096
-4096
8192
0
4096
-4096
8192
0
4096
-4096
8192
0
4096
-4096
8192
0
4096
-4096
8192
0
4096
-4096
8192
0
4096
-4096
8192
0
4096
-4096
8192
0
4096
-4096
8192
0
4096
-4096
8192
0
4096
-4096
8192
0
4096
-4096
8192
0
4096
-4096
8192
0
4096
-4096
8192
0
4096
-4096
8192
0
4096
-4096
8192
0
4096
-4096
8192
0
4096
-4096
8192
0
4096
-4096
8192
0
4096
-4096
8192
0
4096
-4096
8192
0
4096
-4096
8192
0
4096
-4096
8192
0
4096
-4096
8192
0
4096
-4096
8192
0
4096
-4096
8192
0
4096
-4096
8192
0
4096
-4096
8192
0
4096
-4096
8192
0
4096
-4096
8192
0
4096
-4096
8192
0
4096
-4096
8192
0
4096
-4096
8192
0
4096
-4096
8192
0
4096
-4096
8192
0
4096
-4096
8192
0
4096
-4096
8192
0
4096
-4096
8192
0
4096
-4096
8192
0
4096
-4096
8192
0
4096
-4096
8192
0
4096
-4096
8192
0
4096
-4096
8192
0
4096
-4096
8192
0
4096
-4096
8192
0
4096
-4096
8192
0
4096
-4096
8192
0
4096
-4096
8192
0
4096
-4096
8192
0
4096
-4096
8192
0
4096
-4096
8192
0
4096
-4096
8192
0
4096
-4096
8192
0
4096
-4096
8192
0
4096
-4096
8192
0
4096
-4096
8192
0
4096
-4096
8192
0
4096
-4096
8192
0
4096
-4096
8192
0
4096
-4096
8192
0
4096
-4096
8192
0
4096
-4096
8192
0
4096
-4096
8192
0
4096
-4096
8192
0
4096
-4096
8192
0
4096
-4096
8192
0
4096
-4096
8192
0
4096
-4096
8192
0
4096
-4096
8192
0
4096
-4096
8192
0
4096
-4096
8192
0
4096
-4096
8192
0
4096
-4096
8192
0
4096
-4096
8192
0
4096
-4096
8192
0
4096
-4096
8192
0
4096
-4096
8192
0
4096
-4096
8192
0
4096
-4096
8192
0
4096
-4096
8192
0
4096
-4096
8192
0
4096
-4096
8192
0
4096
-4096
8192
0
4096
-4096
8192
0
4096
-4096
8192
0
4096
-4096
8192
0
4096
-4096
8192
0
4096
-4096
8192
0
4096
-4096
8192
0
4096
-4096
8192
0
4096
-4096
8192
0
4096
-4096
8192
0
4096
-4096
8192
0
4096
-4096
8192
0
4096
-4096
8192
0
4096
-4096
8192
0
4096
-4096
8192
0
4096
-4096
8192
0
4096
-4096
8192
0
4096
-4096
8192
0
4096
-4096
8192
0
4096
-4096
8192
0
4096
-4096
8192
0
4096
-4096
8192
0
4096
-4096
8192
0
4096
-4096
8192
0
4096
-4096
8192
0
4096
-4096
8192
0
4096
-4096
8192
0
4096
-4096
8192
0
4096
-4096
8192
0
4096
-4096
8192
0
4096
-4096
8192
0
4096
-4096
8192
0
4096
-4096
8192
0
4096
-4096
8192
0
4096
-4096
8192
0
4096
-4096
8192
0
4096
-4096
8192
0
4096
-4096
8192
0
4096
-4096
8192
0
4096
-4096
8192
0
4096
-4096
8192
0
4096
-4096
8192
0
4096
-4096
8192
0
4096
-4096
8192
0
4096
-4096
8192
0
4096
-4096
8192
0
4096
-4096
8192
0
4096
-4096
8192
0
4096
-4096
8192
0
4096
-4096
8192
0
4096
-4096
8192
0
4096
-4096
8192
0
4096
-4096
8192
0
4096
-4096
8192
0
4096
-4096
8192
0
4096
-4096
8192
0
4096
-4096
8192
0
4096
-4096
8192
0
4096
-4096
8192
0
4096
-4096
8192
0
4096
-4096
8192
0
4096
-4096
8192
0
4096
-4096
8192
0
4096
-4096
8192
0
4096
-4096
8192
0
4096
-4096
8192
0
4096
-4096
8192
0
4096
-4096
8192
0
4096
-4096
8192
0
4096
-4096
8192
0
4096
-4096
8192
0
4096
-4096
8192
0
4096
-4096
8192
0
4096
-4096
8192
0
4096
-4096
8192
0
4096
-4096
8192
0
4096
-4096
8192
0
4096
-4096
8192
0
4096
-4096
8192
0
4096
-4096
8192
0
4096
-4096
8192
0
4096
-4096
8192
0
4096
-4096
8192
0
4096
-4096
8192
0
4096
-4096
8192
0
4096
-4096
8192
0
4096
-4096
8192
0
4096
-4096
8192
0
4096
-4096
8192
0
4096
-4096
8192
0
4096
-4096
8192
0
4096
-4096
8192
0
4096
-4096
8192
0
4096
-4096
8192
0
4096
-4096
8192
0
4096
-4096
8192
0
4096
-4096
8192
0
4096
-4096
8192
0
4096
-4096
8192
0
4096
-4096
8192
0
4096
-4096
8192
0
4096
-4096
8192
0
4096
-4096
8192
0
4096
-4096
8192
0
4096
-4096
8192
0
4096
-4096
8192
0
4096
-4096
8192
0
4096
-4096
8192
0
4096
-4096
8192
0
4096
-4096
8192
0
4096
-4096
8192
0
4096
-4096
8192
0
4096
-4096
8192
0
4096
-4096
8192
0
4096
-4096
8192
0
4096
-4096
8192
0
4096
-4096
8192
0
4096
-4096
8192
0
4096
-4096
8192
0
4096
-4096
8192
0
4096
-4096
8192
0
4096
-4096
8192
0
4096
-4096
8192
0
4096
-4096
8192
0
4096
-4096
8192
0
4096
-4096
8192
0
4096
-4096
8192
0
4096
-4096
8192
0
4096
-4096
8192
0
4096
-4096
8192
0
4096
-4096
8192
0
4096
-4096
8192
0
4096
-4096
8192
0
4096
-4096
8192
0
4096
-4096
8192
0
4096
-4096
8192
0
4096
-4096
8192
0
4096
-4096
8192
0
4096
-4096
8192
0
4096
-4096
8192
0
4096
-4096
8192
0
4096
-4096
8192
0
4096
-4096
8192
0
4096
-4096
8192
0
4096
-4096
8192
0
4096
-4096
8192
0
4096
-4096
8192
0
4096
-4096
8192
0
4096
-4096
8192
0
4096
-4096
8192
0
4096
-4096
8192
0
4096
-4096
8192
0
4096
-4096
8192
0
4096
-4096
8192
0
4096
-4096
8192
0
4096
-4096
8192
0
4096
-4096
8192
0
4096
-4096
8192
0
4096
-4096
8192
0
4096
-4096
8192
0
4096
-4096
8192
0
4096
-4096
8192
0
4096
-4096
8192
0
4096
-4096
8192
0
4096
-4096
8192
0
4096
-4096
8192
0
4096
-4096
8192
0
4096
-4096
8192
0
4096
-4096
8192
0
4096
-4096
8192
0
4096
-4096
8192
0
4096
-4096
8192
0
4096
-4096
8192
0
4096
-4096
8192
0
4096
-4096
8192
0
4096
-4096
8192
0
4096
-4096
8192
0
4096
-4096
8192
0
4096
-4096
8192
0
4096
-4096
8192
0
4096
-4096
8192
0
4096
-4096
8192
0
4096
-4096
8192
0
4096
-4096
8192
0
4096
-4096
8192
0
4096
-4096
8192
0
4096
-4096
8192
0
4096
-4096
8192
0
4096
-4096
8192
0
4096
-4096
8192
0
4096
-4096
8192
0
4096
-4096
8192
0
4096
-4096
8192
0
4096
-4096
8192
0
4096
-4096
8192
0
4096
-4096
8192
0
4096
-4096
8192
0
4096
-4096
8192
0
4096
-4096
8192
0
4096
-4096
8192
0
4096
-4096
8192
0
4096
-4096
8192
0
4096
-4096
8192
0
4096
-4096
8192
0
4096
-4096
8192
0
4096
-4096
8192
0
4096
-4096
8192
0
4096
-4096
8192
0
4096
-4096
8192
0
4096
-4096
8192
0
4096
-4096
8192
0
4096
-4096
8192
0
4096
-4096
8192
0
4096
-4096
8192
0
4096
-4096
8192
0
4096
-4096
8192
0
4096
-4096
8192
0
4096
-4096
8192
0
4096
-4096
8192
0
4096
-4096
8192
0
4096
-4096
8192
0
4096
-4096
8192
0
4096
-4096
8192
0
4096
-4096
8192
0
4096
-4096
8192
0
4096
-4096
8192
0
4096
-4096
8192
0
4096
-4096
8192
0
4096
-4096
8192
0
4096
-4096
8192
0
4096
-4096
8192
0
4096
-4096
8192
0
4096
-4096
8192
0
4096
-4096
8192
0
4096
-4096
8192
0
4096
-4096
8192
0
4096
-4096
8192
0
4096
-4096
8192
0
4096
-4096
8192
0
4096
-4096
8192
0
4096
-4096
8192
0
4096
-4096
8192
0
4096
-4096
8192
0
4096
-4096
8192
0
4096
-4096
8192
0
4096
-4096
8192
0
4096
-4096
8192
0
4096
-4096
8192
0
4096
-4096
8192
0
4096
-4096
8192
0
4096
-4096
8192
0
4096
-4096
8192
0
4096
-4096
8192
0
4096
-4096
8192
0
4096
-4096
8192
0
4096
-4096
8192
0
4096
-4096
8192
0
4096
-4096
8192
0
4096
-4096
8192
0
4096
-4096
8192
0
4096
-4096
8192
0
4096
-4096
8192
0
4096
-4096
8192
0
4096
-4096
8192
0
4096
-4096
8192
0
4096
-4096
8192
0
4096
-4096
8192
0
4096
-4096
8192
0
4096
-4096
8192
0
4096
-4096
8192
0
4096
-4096
8192
0
4096
-4096
8192
0
4096
-4096
8192
0
4096
-4096
8192
0
4096
-4096
8192
0
4096
-4096
8192
0
4096
-4096
8192
0
4096
-4096
8192
0
4096
-4096
8192
0
4096
-4096
8192
0
4096
-4096
8192
0
4096
-4096
8192
0
4096
-4096
8192
0
4096
-4096
8192
0
4096
-4096
8192
0
4096
-4096
8192
0
4096
-4096
8192
0
4096
-4096
8192
0
4096
-4096
8192
0
4096
-4096
8192
0
4096
-4096
8192
0
4096
-4096
8192
0
4096
-4096
8192
0
4096
-4096
8192
0
4096
-4096
8192
0
4096
-4096
8192
0
4096
-4096
8192
0
4096
-4096
8192
0
4096
-4096
8192
0
4096
-4096
8192
0
4096
-4096
8192
0
4096
-4096
8192
0
4096
-4096
8192
0
4096
-4096
8192
0
4096
-4096
8192
0
4096
-4096
8192
0
4096
-4096
8192
0
4096
-4096
8192
0
4096
-4096
8192
0
4096
-4096
8192
0
4096
-4096
8192
0
4096
-4096
8192
0
4096
-4096
8192
0
4096
-4096
8192
0
4096
-4096
8192
0
4096
-4096
8192
0
4096
-4096
8192
0
4096
-4096
8192
0
4096
-4096
8192
0
4096
-4096
8192
0
4096
-4096
8192
0
4096
-4096
8192
0
4096
-4096
8192
0
4096
-4096
8192
0
4096
-4096
8192
0
4096
-4096
8192
0
4096
-4096
8192
0
4096
-4096
8192
0
4096
-4096
8192
0
4096
-4096
8192
0
4096
-4096
8192
0
4096
-4096
8192
0
4096
-4096
8192
0
4096
-4096
8192
0
4096
-4096
8192
0
4096
-4096
8192
0
4096
-4096
8192
0
4096
-4096
8192
0
4096
-4096
8192
0
4096
-4096
8192
0
4096
-4096
8192
0
4096
-4096
8192
0
4096
-4096
8192
0
4096
-4096
8192
0
4096
-4096
8192
0
4096
-4096
8192
0
4096
-4096
8192
0
4096
-4096
8192
0
4096
-4096
8192
0
4096
-4096
8192
0
4096
-4096
8192
0
4096
-4096
8192
0
4096
-4096
8192
0
4096
-4096
8192
0
4096
-4096
8192
0
4096
-4096
8192
0
4096
-4096
8192
0
4096
-4096
8192
0
4096
-4096
8192
0
4096
-4096
8192
0
4096
-4096
8192
0
4096
-4096
8192
0
4096
-4096
8192
0
4096
-4096
8192
0
4096
-4096
8192
0
4096
-4096
8192
0
4096
-4096
8192
0
4096
-4096
8192
0
4096
-4096
8192
0
4096
-4096
8192
0
4096
-4096
8192
0
4096
-4096
8192
0
4096
-4096
8192
0
4096
-4096
8192
0
4096
-4096
8192
0
4096
-4096
8192
0
4096
-4096
8192
0
4096
-4096
8192
0
4096
-4096
8192
0
4096
-4096
8192
0
4096
-4096
8192
0
4096
-4096
8192
0
4096
-4096
8192
0
4096
-4096
8192
0
4096
-4096
8192
0
4096
-4096
8192
0
4096
-4096
8192
0
4096
-4096
8192
0
4096
-4096
8192
0
4096
-4096
8192
0
4096
-4096
8192
0
4096
-4096
8192
0
4096
-4096
8192
0
4096
-4096
8192
0
4096
-4096
8192
0
4096
-4096
8192
0
4096
-4096
8192
0
4096
-4096
8192
0
4096
-4096
8192
0
4096
-4096
8192
0
4096
-4096
8192
0
4096
-4096
8192
0
4096
-4096
8192
0
4096
-4096
8192
0
4096
-4096
8192
0
4096
-4096
8192
0
4096
-4096
8192
0
4096
-4096
8192
0
4096
-4096
8192
0
4096
-4096
8192
0
4096
-4096
8192
0
4096
-4096
8192
0
4096
-4096
8192
0
4096
-4096
8192
0
4096
-4096
8192
0
4096
-4096
8192
0
4096
-4096
8192
0
4096
-4096
8192
0
4096
-4096
8192
0
4096
-4096
8192
0
4096
-4096
8192
0
4096
-4096
8192
0
4096
-4096
8192
0
4096
-4096
8192
0
4096
-4096
8192
0
4096
-4096
8192
0
4096
-4096
8192
0
4096
-4096
8192
0
4096
-4096
8192
0
4096
-4096
8192
0
4096
-4096
8192
0
4096
-4096
8192
0
4096
-4096
8192
0
4096
-4096
8192
0
4096
-4096
8192
0
4096
-4096
8192
0
4096
-4096
8192
0
4096
-4096
8192
0
4096
-4096
8192
0
4096
-4096
8192
0
4096
-4096
8192
0
4096
-4096
8192
0
4096
-4096
8192
0
4096
-4096
8192
0
4096
-4096
8192
0
4096
-4096
8192
0
4096
-4096
8192
0
4096
-4096
8192
0
4096
-4096
8192
0
4096
-4096
8192
0
4096
-4096
8192
0
4096
-4096
8192
0
4096
-4096
8192
0
4096
-4096
8192
0
4096
-4096
8192
0
4096
-4096
8192
0
4096
-4096
8192
0
4096
-4096
8192
0
4096
-4096
8192
0
4096
-4096
8192
0
4096
-4096
8192
0
4096
-4096
8192
0
4096
-4096
8192
0
4096
-4096
8192
0
4096
-4096
8192
0
4096
-4096
8192
0
4096
-4096
8192
0
4096
-4096
8192
0
4096
-4096
8192
0
4096
-4096
8192
0
4096
-4096
8192
0
4096
-4096
8192
0
4096
-4096
8192
0
4096
-4096
8192
0
4096
-4096
8192
0
4096
-4096
8192
0
4096
-4096
8192
0
4096
-4096
8192
0
4096
-4096
8192
0
4096
-4096
8192
0
4096
-4096
8192
0
4096
-4096
8192
0
4096
-4096
8192
0
4096
-4096
8192
0
4096
-4096
8192
0
4096
-4096
8192
0
4096
-4096
8192
0
4096
-4096
8192
0
4096
-4096
8192
0
4096
-4096
8192
0
4096
-4096
8192
0
4096
-4096
8192
0
4096
-4096
8192
0
4096
-4096
8192
0
4096
-4096
8192
0
4096
-4096
8192
0
4096
-4096
8192
0
4096
-4096
8192
0
4096
-4096
8192
0
4096
-4096
8192
0
4096
-4096
8192
0
4096
-4096
8192
0
4096
-4096
8192
0
4096
-4096
8192
0
4096
-4096
8192
0
4096
-4096
8192
0
4096
-4096
8192
0
4096
-4096
8192
0
4096
-4096
8192
0
4096
-4096
8192
0
4096
-4096
8192
0
4096
-4096
8192
0
4096
-4096
8192
0
4096
-4096
8192
0
4096
-4096
8192
0
4096
-4096
8192
0
4096
-4096
8192
0
4096
-4096
8192
0
4096
-4096
8192
0
4096
-4096
8192
0
4096
-4096
8192
0
4096
-4096
8192
0
4096
-4096
8192
0
4096
-4096
8192
0
4096
-4096
8192
0
4096
-4096
8192
0
4096
-4096
8192
0
4096
-4096
8192
0
4096
-4096
8192
0
4096
-4096
8192
0
4096
-4096
8192
0
4096
-4096
8192
0
4096
-4096
8192
0
4096
-4096
8192
0
4096
-4096
8192
0
4096
-4096
8192
0
4096
-4096
8192
0
4096
-4096
8192
0
4096
-4096
8192
0
4096
-4096
8192
0
4096
-4096
8192
0
4096
-4096
8192
0
4096
-4096
8192
0
4096
-4096
8192
0
4096
-4096
8192
0
4096
-4096
8192
0
4096
-4096
8192
0
4096
-4096
8192
0
4096
-4096
8192
0
4096
-4096
8192
0
4096
-4096
8192
0
4096
-4096
8192
0
4096
-4096
8192
0
4096
-4096
8192
0
4096
-4096
8192
0
4096
-4096
8192
0
4096
-4096
8192
0
4096
-4096
8192
0
4096
-4096
8192
0
4096
-4096
8192
0
4096
-4096
8192
0
4096
-4096
8192
0
4096
-4096
8192
0
4096
-4096
8192
0
4096
-4096
8192
0
4096
-4096
8192
0
4096
-4096
8192
0
4096
-4096
8192
0
4096
-4096
8192
0
4096
-4096
8192
0
4096
-4096
8192
0
4096
-4096
8192
0
4096
-4096
8192
0
4096
-4096
8192
0
4096
-4096
8192
0
4096
-4096
8192
0
4096
-4096
8192
0
4096
-4096
8192
0
4096
-4096
8192
0
4096
-4096
8192
0
4096
-4096
8192
0
4096
-4096
8192
0
4096
-4096
8192
0
4096
-4096
8192
0
4096
-4096
8192
0
4096
-4096
8192
0
4096
-4096
8192
0
4096
-4096
8192
0
4096
-4096
8192
0
4096
-4096
8192
0
4096
-4096
8192
0
4096
-4096
8192
0
4096
-4096
8192
0
4096
-4096
8192
0
4096
-4096
8192
0
4096
-4096
8192
0
4096
-4096
8192
0
4096
-4096
8192
0
4096
-4096
8192
0
4096
-4096
8192
0
4096
-4096
8192
0
4096
-4096
8192
0
4096
-4096
8192
0
4096
-4096
8192
0
4096
-4096
8192
0
4096
-4096
8192
0
4096
-4096
8192
0
4096
-4096
8192
0
4096
-4096
8192
0
4096
-4096
8192
0
4096
-4096
8192
0
4096
-4096
8192
0
4096
-4096
8192
0
4096
-4096
8192
0
4096
-4096
8192
0
4096
-4096
8192
0
4096
-4096
8192
0
4096
-4096
8192
0
4096
-4096
8192
0
4096
-4096
8192
0
4096
-4096
8192
0
4096
-4096
8192
0
4096
-4096
8192
0
4096
-4096
8192
0
4096
-4096
8192
0
4096
-4096
8192
0
4096
-4096
8192
0
4096
-4096
8192
0
4096
-4096
8192
0
4096
-4096
8192
0
4096
-4096
8192
0
4096
-4096
8192
0
4096
-4096
8192
0
4096
-4096
8192
0
4096
-4096
8192
0
4096
-4096
8192
0
4096
-4096
8192
0
4096
-4096
8192
0
4096
-4096
8192
0
4096
-4096
8192
0
4096
-4096
8192
0
4096
-4096
8192
0
4096
-4096
8192
0
4096
-4096
8192
0
4096
-4096
8192
0
4096
-4096
8192
0
4096
-4096
8192
0
4096
-4096
8192
0
4096
-4096
8192
0
4096
-4096
8192
0
4096
-4096
8192
0
4096
-4096
8192
0
4096
-4096
8192
0
4096
-4096
8192
0
4096
-4096
8192
0
4096
-4096
8192
0
4096
-4096
8192
0
4096
-4096
8192
0
4096
-4096
8192
0
4096
-4096
8192
0
4096
-4096
8192
0
4096
-4096
8192
0
4096
-4096
8192
0
4096
-4096
8192
0
4096
-4096
8192
0
4096
-4096
8192
0
4096
-4096
8192
0
4096
-4096
8192
0
4096
-4096
8192
0
4096
-4096
8192
0
4096
-4096
8192
0
4096
-4096
8192
0
4096
-4096
8192
0
4096
-4096
8192
0
4096
-4096
8192
0
4096
-4096
8192
0
4096
-4096
8192
0
4096
-4096
8192
0
4096
-4096
8192
0
4096
-4096
8192
0
4096
-4096
8192
0
4096
-4096
8192
0
4096
-4096
8192
0
4096
-4096
8192
0
4096
-4096
8192
0
4096
-4096
8192
0
4096
-4096
8192
0
4096
-4096
8192
0
4096
-4096
8192
0
4096
-4096
8192
0
4096
-4096
8192
0
4096
-4096
8192
0
4096
-4096
8192
0
4096
-4096
8192
0
4096
-4096
8192
0
4096
-4096
8192
0
4096
-4096
8192
0
4096
-4096
8192
0
4096
-4096
8192
0
4096
-4096
8192
0
4096
-4096
8192
0
4096
-4096
8192
0
4096
-4096
8192
0
4096
-4096
8192
0
4096
-4096
8192
0
4096
-4096
8192
0
4096
-4096
8192
0
4096
-4096
8192
0
4096
-4096
8192
0
4096
-4096
8192
0
4096
-4096
8192
0
4096
-4096
8192
0
4096
-4096
8192
0
4096
-4096
8192
0
4096
-4096
8192
0
4096
-4096
8192
0
4096
-4096
8192
0
4096
-4096
8192
0
4096
-4096
8192
0
4096
-4096
8192
0
4096
-4096
8192
0
4096
-4096
8192
0
4096
-4096
8192
0
4096
-4096
8192
0
4096
-4096
8192
0
4096
-4096
8192
0
4096
-4096
8192
0
4096
-4096
8192
0
4096
-4096
8192
0
4096
-4096
8192
0
4096
-4096
8192
0
4096
-4096
8192
0
4096
-4096
8192
0
4096
-4096
8192
0
4096
-4096
8192
0
4096
-4096
8192
0
4096
-4096
8192
0
4096
-4096
8192
0
4096
-4096
8192
0
4096
-4096
8192
0
4096
-4096
8192
0
4096
-4096
8192
0
4096
-4096
8192
0
4096
-4096
8192
0
4096
-4096
8192
0
4096
-4096
8192
0
4096
-4096
8192
0
4096
-4096
8192
0
4096
-4096
8192
0
4096
-4096
8192
0
4096
-4096
8192
0
4096
-4096
8192
0
4096
-4096
8192
0
4096
-4096
8192
0
4096
-4096
8192
0
4096
-4096
8192
0
4096
-4096
8192
0
4096
-4096
8192
0
4096
-4096
8192
0
4096
-4096
8192
0
4096
-4096
8192
0
4096
-4096
8192
0
4096
-4096
8192
0
4096
-4096
8192
0
4096
-4096
8192
0
4096
-4096
8192
0
4096
-4096
8192
0
4096
-4096
8192
0
4096
-4096
8192
0
4096
-4096
8192
0
4096
-4096
8192
0
4096
-4096
8192
0
4096
-4096
8192
0
4096
-4096
8192
0
4096
-4096
8192
0
4096
-4096
8192
0
4096
-4096
8192
0
4096
-4096
8192
0
4096
-4096
8192
0
4096
-4096
8192
0
4096
-4096
8192
0
4096
-4096
8192
0
4096
-4096
8192
0
4096
-4096
8192
0
4096
-4096
8192
0
4096
-4096
8192
0
4096
-4096
8192
0
4096
-4096
8192
0
4096
-4096
8192
0
4096
-4096
8192
0
4096
-4096
8192
0
4096
-4096
8192
0
4096
-4096
8192
0
4096
-4096
8192
0
4096
-4096
8192
0
4096
-4096
8192
0
4096
-4096
8192
0
4096
-4096
8192
0
4096
-4096
8192
0
4096
-4096
8192
0
4096
-4096
8192
0
4096
-4096
8192
0
4096
-4096
8192
0
4096
-4096
8192
0
4096
-4096
8192
0
4096
-4096
8192
0
4096
-4096
8192
0
4096
-4096
8192
0
4096
-4096
8192
0
4096
-4096
8192
0
4096
-4096
8192
0
4096
-4096
8192
0
4096
-4096
8192
0
4096
-4096
8192
0
4096
-4096
8192
0
4096
-4096
8192
0
4096
-4096
8192
0
4096
-4096
8192
0
4096
-4096
8192
0
4096
-4096
8192
0
4096
-4096
8192
0
4096
-4096
8192
0
4096
-4096
8192
0
4096
-4096
8192
0
4096
-4096
8192
0
4096
-4096
8192
0
4096
-4096
8192
0
4096
-4096
8192
0
4096
-4096
8192
0
4096
-4096
8192
0
4096
-4096
8192
0
4096
-4096
8192
0
4096
-4096
8192
0
4096
-4096
8192
0
4096
-4096
8192
0
4096
-4096
8192
0
4096
-4096
8192
0
4096
-4096
8192
0
4096
-4096
8192
0
4096
-4096
8192
0
4096
-4096
8192
0
4096
-4096
8192
0
4096
-4096
8192
0
4096
-4096
8192
0
4096
-4096
8192
0
4096
-4096
8192
0
4096
-4096
8192
0
4096
-4096
8192
0
4096
-4096
8192
0
4096
-4096
8192
0
4096
-4096
8192
0
4096
-4096
8192
0
4096
-4096
8192
0
4096
-4096
8192
0
4096
-4096
8192
0
4096
-4096
8192
0
4096
-4096
8192
0
4096
-4096
8192
0
4096
-4096
8192
0
4096
-4096
8192
0
4096
-4096
8192
0
4096
-4096
8192
0
4096
-4096
8192
0
4096
-4096
8192
0
4096
-4096
8192
0
4096
-4096
8192
0
4096
-4096
8192
0
4096
-4096
8192
0
4096
-4096
8192
0
4096
-4096
8192
0
4096
-4096
8192
0
4096
-4096
8192
0
4096
-4096
8192
0
4096
-4096
8192
0
4096
-4096
8192
0
4096
-4096
8192
0
4096
-4096
8192
0
4096
-4096
8192
0
4096
-4096
8192
0
4096
-4096
8192
0
4096
-4096
8192
0
4096
-4096
8192
0
4096
-4096
8192
0
4096
-4096
8192
0
4096
-4096
8192
0
4096
-4096
8192
0
4096
-4096
8192
0
4096
-4096
8192
0
4096
-4096
8192
0
4096
-4096
8192
0
4096
-4096
8192
0
4096
-4096
8192
0
4096
-4096
8192
0
4096
-4096
8192
0
4096
-4096
8192
0
4096
-4096
8192
0
4096
-4096
8192
0
4096
-4096
8192
0
4096
-4096
8192
0
4096
-4096
8192
0
4096
-4096
8192
0
4096
-4096
8192
0
4096
-4096
8192
0
4096
-4096
8192
0
4096
-4096
8192
0
4096
-4096
8192
0
4096
-4096
8192
0
4096
-4096
8192
0
4096
-4096
8192
0
4096
-4096
8192
0
4096
-4096
8192
0
4096
-4096
8192
0
4096
-4096
8192
0
4096
-4096
8192
0
4096
-4096
8192
0
4096
-4096
8192
0
4096
-4096
8192
0
4096
-4096
8192
0
4096
-4096
8192
0
4096
-4096
8192
0
4096
-4096
8192
0
4096
-4096
8192
0
4096
-4096
8192
0
4096
-4096
8192
0
4096
-4096
8192
0
4096
-4096
8192
0
4096
-4096
8192
0
4096
-4096
8192
0
4096
-4096
8192
0
4096
-4096
8192
0
4096
-4096
8192
0
4096
-4096
8192
0
4096
-4096
8192
0
4096
-4096
8192
0
4096
-4096
8192
0
4096
-4096
8192
0
4096
-4096
8192
0
4096
-4096
8192
0
4096
-4096
8192
0
4096
-4096
8192
0
4096
-4096
8192
0
4096
-4096
8192
0
4096
-4096
8192
0
4096
-4096
8192
0
4096
-4096
8192
0
4096
-4096
8192
0
4096
-4096
8192
0
4096
-4096
8192
0
4096
-4096
8192
0
4096
-4096
8192
0
4096
-4096
8192
0
4096
-4096
8192
0
4096
-4096
8192
0
4096
-4096
8192
0
4096
-4096
8192
0
4096
-4096
8192
0
4096
-4096
8192
0
4096
-4096
8192
0
4096
-4096
8192
0
4096
-4096
8192
0
4096
-4096
8192
0
4096
-4096
8192
0
4096
-4096
8192
0
4096
-4096
8192
0
4096
-4096
8192
0
4096
-4096
8192
0
4096
-4096
8192
0
4096
-4096
8192
0
4096
-4096
8192
0
4096
-4096
8192
0
4096
-4096
8192
0
4096
-4096
8192
0
4096
-4096
8192
0
4096
-4096
8192
0
4096
-4096
8192
0
4096
-4096
8192
0
4096
-4096
8192
0
4096
-4096
8192
0
4096
-4096
8192
0
4096
-4096
8192
0
4096
-4096
8192
0
4096
-4096
8192
0
4096
-4096
8192
0
4096
-4096
8192
0
4096
-4096
8192
0
4096
-4096
8192
0
4096
-4096
8192
0
4096
-4096
8192
0
4096
-4096
8192
0
4096
-4096
8192
0
4096
-4096
8192
0
4096
-4096
8192
0
4096
-4096
8192
0
4096
-4096
8192
0
4096
-4096
8192
0
4096
-4096
8192
0
4096
-4096
8192
0
4096
-4096
8192
0
4096
-4096
8192
0
4096
-4096
8192
0
4096
-4096
8192
0
4096
-4096
8192
0
4096
-4096
8192
0
4096
-4096
8192
0
4096
-4096
8192
0
4096
-4096
8192
0
4096
-4096
8192
0
4096
-4096
8192
0
4096
-4096
8192
0
4096
-4096
8192
0
4096
-4096
8192
0
4096
-4096
8192
0
4096
-4096
8192
0
4096
-4096
8192
0
4096
-4096
8192
0
4096
-4096
8192
0
4096
-4096
8192
0
4096
-4096
8192
0
4096
-4096
8192
0
4096
-4096
8192
0
4096
-4096
8192
0
4096
-4096
8192
0
4096
-4096
8192
0
4096
-4096
8192
0
4096
-4096
8192
0
4096
-4096
8192
0
4096
-4096
8192
0
4096
-4096
8192
0
4096
-4096
8192
0
4096
-4096
8192
0
4096
-4096
8192
0
4096
-4096
8192
0
4096
-4096
8192
0
4096
-4096
8192
0
4096
-4096
8192
0
4096
-4096
8192
0
4096
-4096
8192
0
4096
-4096
8192
0
4096
-4096
8192
0
4096
-4096
8192
0
4096
-4096
8192
0
4096
-4096
8192
0
4096
-4096
8192
0
4096
-4096
8192
0
4096
-4096
8192
0
4096
-4096
8192
0
4096
-4096
8192
0
4096
-4096
8192
0
4096
-4096
8192
0
4096
-4096
8192
0
4096
-4096
8192
0
4096
-4096
8192
0
4096
-4096
8192
0
4096
-4096
8192
0
4096
-4096
8192
0
4096
-4096
8192
0
4096
-4096
8192
0
4096
-4096
8192
0
4096
-4096
8192
0
4096
-4096
8192
0
4096
-4096
8192
0
4096
-4096
8192
0
4096
-4096
8192
0
4096
-4096
8192
0
4096
-4096
8192
0
4096
-4096
8192
0
4096
-4096
8192
0
4096
-4096
8192
0
4096
-4096
8192
0
4096
-4096
8192
0
4096
-4096
8192
0
4096
-4096
8192
0
4096
-4096
8192
0
4096
-4096
8192
0
4096
-4096
8192
0
4096
-4096
8192
0
4096
-4096
8192
0
4096
-4096
8192
0
4096
-4096
8192
0
4096
-4096
8192
0
4096
-4096
8192
0
4096
-4096
8192
0
4096
-4096
8192
0
4096
-4096
8192
0
4096
-4096
8192
0
4096
-4096
8192
0
4096
-4096
8192
0
4096
-4096
8192
0
4096
-4096
8192
0
4096
-4096
8192
0
4096
-4096
8192
0
4096
-4096
8192
0
4096
-4096
8192
0
4096
-4096
8192
0
4096
-4096
8192
0
4096
-4096
8192
0
4096
-4096
8192
0
4096
-4096
8192
0
4096
-4096
8192
0
4096
-4096
8192
0
4096
-4096
8192
0
4096
-4096
8192
0
4096
-4096
8192
0
4096
-4096
8192
0
4096
-4096
8192
0
4096
-4096
8192
0
4096
-4096
8192
0
4096
-4096
8192
0
4096
-4096
8192
0
4096
-4096
8192
0
4096
-4096
8192
0
4096
-4096
8192
0
4096
-4096
8192
0
4096
-4096
8192
0
4096
-4096
8192
0
4096
-4096
8192
0
4096
-4096
8192
0
4096
-4096
8192
0
4096
-4096
8192
0
4096
-4096
8192
0
4096
-4096
8192
0
4096
-4096
8192
0
4096
-4096
8192
0
4096
-4096
8192
0
4096
-4096
8192
0
4096
-4096
8192
0
4096
-4096
8192
0
4096
-4096
8192
0
4096
-4096
8192
0
4096
-4096
8192
0
4096
-4096
8192
0
4096
-4096
8192
0
4096
-4096
8192
0
4096
-4096
8192
0
4096
-4096
8192
0
4096
-4096
8192
0
4096
-4096
8192
0
4096
-4096
8192
0
4096
-4096
8192
0
4096
-4096
8192
0
4096
-4096
8192
0
4096
-4096
8192
0
4096
-4096
8192
0
4096
-4096
8192
0
4096
-4096
8192
0
4096
-4096
8192
0
4096
-4096
8192
0
4096
-4096
8192
0
4096
-4096
8192
0
4096
-4096
8192
0
4096
-4096
8192
0
4096
-4096
8192
0
4096
-4096
8192
0
4096
-4096
8192
0
4096
-4096
8192
0
4096
-4096
8192
0
4096
-4096
8192
0
4096
-4096
8192
0
4096
-4096
8192
0
4096
-4096
8192
0
4096
-4096
8192
0
4096
-4096
8192
0
4096
-4096
8192
0
4096
-4096
8192
0
4096
-4096
8192
0
4096
-4096
8192
0
4096
-4096
8192
0
4096
-4096
8192
0
4096
-4096
8192
0
4096
-4096
8192
0
4096
-4096
8192
0
4096
-4096
8192
0
4096
-4096
8192
0
4096
-4096
8192
0
4096
-4096
8192
0
4096
-4096
8192
0
4096
-4096
8192
0
4096
-4096
8192
0
4096
-4096
8192
0
4096
-4096
8192
0
4096
-4096
8192
0
4096
-4096
8192
0
4096
-4096
8192
0
4096
-4096
8192
0
4096
-4096
8192
0
4096
-4096
8192
0
4096
-4096
8192
0
4096
-4096
8192
0
4096
-4096
8192
0
4096
-4096
8192
0
4096
-4096
8192
0
4096
-4096
8192
0
4096
-4096
8192
0
4096
-4096
8192
0
4096
-4096
8192
0
4096
-4096
8192
0
4096
-4096
8192
0
4096
-4096
8192
0
4096
-4096
8192
0
4096
-4096
8192
0
4096
-4096
8192
0
4096
-4096
8192
0
4096
-4096
8192
0
4096
-4096
8192
0
4096
-4096
8192
0
4096
-4096
8192
0
4096
-4096
8192
0
4096
-4096
8192
0
4096
-4096
8192
0
4096
-4096
8192
0
4096
-4096
8192
0
4096
-4096
8192
0
4096
-4096
8192
0
4096
-4096
8192
0
4096
-4096
8192
0
4096
-4096
8192
0
4096
-4096
8192
0
4096
-4096
8192
0
4096
-4096
8192
0
4096
-4096
8192
0
4096
-4096
8192
0
4096
-4096
8192
0
4096
-4096
8192
0
4096
-4096
8192
0
4096
-4096
8192
0
4096
-4096
8192
0
4096
-4096
8192
0
4096
-4096
8192
0
4096
-4096
8192
0
4096
-4096
8192
0
4096
-4096
8192
0
4096
-4096
8192
0
4096
-4096
8192
0
4096
-4096
8192
0
4096
-4096
8192
0
4096
-4096
8192
0
4096
-4096
8192
0
4096
-4096
8192
0
4096
-4096
8192
0
4096
-4096
8192
0
4096
-4096
8192
0
4096
-4096
8192
0
4096
-4096
8192
0
4096
-4096
8192
0
4096
-4096
8192
0
4096
-4096
8192
0
4096
-4096
8192
0
4096
-4096
8192
0
4096
-4096
8192
0
4096
-4096
8192
0
4096
-4096
8192
0
4096
-4096
8192
0
4096
-4096
8192
0
4096
-4096
8192
0
4096
-4096
8192
0
4096
-4096
8192
0
4096
-4096
8192
0
4096
-4096
8192
0
4096
-4096
8192
0
4096
-4096
8192
0
4096
-4096
8192
0
4096
-4096
8192
0
4096
-4096
8192
0
4096
-4096
8192
0
4096
-4096
8192
0
4096
-4096
8192
0
4096
-4096
8192
0
4096
-4096
8192
0
4096
-4096
8192
0
4096
-4096
8192
0
4096
-4096
8192
0
4096
-4096
8192
0
4096
-4096
8192
0
4096
-4096
8192
0
4096
-4096
8192
0
4096
-4096
8192
0
4096
-4096
8192
0
4096
-4096
8192
0
4096
-4096
8192
0
4096
-4096
8192
0
4096
-4096
8192
0
4096
-4096
8192
0
4096
-4096
8192
0
4096
-4096
8192
0
4096
-4096
8192
0
4096
-4096
8192
0
4096
-4096
8192
0
4096
-4096
8192
0
4096
-4096
8192
0
4096
-4096
8192
0
4096
-4096
8192
0
4096
-4096
8192
0
4096
-4096
8192
0
4096
-4096
8192
0
4096
-4096
8192
0
4096
-4096
8192
0
4096
-4096
8192
0
4096
-4096
8192
0
4096
-4096
8192
0
4096
-4096
8192
0
4096
-4096
8192
0
4096
-4096
8192
0
4096
-4096
8192
0
4096
-4096
8192
0
4096
-4096
8192
0
4096
-4096
8192
0
4096
-4096
8192
0
4096
-4096
8192
0
4096
-4096
8192
0
4096
-4096
8192
0
4096
-4096
8192
0
4096
-4096
8192
0
4096
-4096
8192
0
4096
-4096
8192
0
4096
-4096
8192
0
4096
-4096
8192
0
4096
-4096
8192
0
4096
-4096
8192
0
4096
-4096
8192
0
4096
-4096
8192
0
4096
-4096
8192
0
4096
-4096
8192
0
4096
-4096
8192
0
4096
-4096
8192
0
4096
-4096
8192
0
4096
-4096
8192
0
4096
-4096
8192
0
4096
-4096
8192
0
4096
-4096
8192
0
4096
-4096
8192
0
4096
-4096
8192
0
4096
-4096
8192
0
4096
-4096
8192
0
4096
-4096
8192
0
4096
-4096
8192
0
4096
-4096
8192
0
4096
-4096
8192
0
4096
-4096
8192
0
4096
-4096
8192
0
4096
-4096
8192
0
4096
-4096
8192
0
4096
-4096
8192
0
4096
-4096
8192
0
4096
-4096
8192
0
4096
-4096
8192
0
4096
-4096
8192
0
4096
-4096
8192
0
4096
-4096
8192
0
4096
-4096
8192
0
4096
-4096
8192
0
4096
-4096
8192
0
4096
-4096
8192
0
4096
-4096
8192
0
4096
-4096
8192
0
4096
-4096
8192
0
4096
-4096
8192
0
4096
-4096
8192
0
4096
-4096
8192
0
4096
-4096
8192
0
4096
-4096
8192
0
4096
-4096
8192
0
4096
-4096
8192
0
4096
-4096
8192
0
4096
-4096
8192
0
4096
-4096
8192
0
4096
-4096
8192
0
4096
-4096
8192
0
4096
-4096
8192
0
4096
-4096
8192
0
4096
-4096
8192
0
4096
-4096
8192
0
4096
-4096
8192
0
4096
-4096
8192
0
4096
-4096
8192
0
4096
-4096
8192
0
4096
-4096
8192
0
4096
-4096
8192
0
4096
-4096
8192
0
4096
-4096
8192
0
4096
-4096
8192
0
4096
-4096
8192
0
4096
-4096
8192
0
4096
-4096
8192
0
4096
-4096
8192
0
4096
-4096
8192
0
4096
-4096
8192
0
4096
-4096
8192
0
4096
-4096
8192
0
4096
-4096
8192
0
4096
-4096
8192
0
4096
-4096
8192
0
4096
-4096
8192
0
4096
-4096
8192
0
4096
-4096
8192
0
4096
-4096
8192
0
4096
-4096
8192
0
4096
-4096
8192
0
4096
-4096
8192
0
4096
-4096
8192
0
4096
-4096
8192
0
4096
-4096
8192
0
4096
-4096
8192
0
4096
-4096
8192
0
4096
-4096
8192
0
4096
-4096
8192
0
4096
-4096
8192
0
4096
-4096
8192
0
4096
-4096
8192
0
4096
-4096
8192
0
4096
-4096
8192
0
4096
-4096
8192
0
4096
-4096
8192
0
4096
-4096
8192
0
4096
-4096
8192
0
4096
-4096
8192
0
4096
-4096
8192
0
4096
-4096
8192
0
4096
-4096
8192
0
4096
-4096
8192
0
4096
-4096
8192
0
4096
-4096
8192
0
4096
-4096
8192
0
4096
-4096
8192
0
4096
-4096
8192
0
4096
-4096
8192
0
4096
-4096
8192
0
4096
-4096
8192
0
4096
-4096
8192
0
4096
-4096
8192
0
4096
-4096
8192
0
4096
-4096
8192
0
4096
-4096
8192
0
4096
-4096
8192
0
4096
-4096
8192
0
4096
-4096
8192
0
4096
-4096
8192
0
4096
-4096
8192
0
4096
-4096
8192
0
4096
-4096
8192
0
4096
-4096
8192
0
4096
-4096
8192
0
4096
-4096
8192
0
4096
-4096
8192
0
4096
-4096
8192
0
4096
-4096
8192
0
4096
-4096
8192
0
4096
-4096
8192
0
4096
-4096
8192
0
4096
-4096
8192
0
4096
-4096
8192
0
4096
-4096
8192
0
4096
-4096
8192
0
4096
-4096
8192
0
4096
-4096
8192
0
4096
-4096
8192
0
4096
-4096
8192
0
4096
-4096
8192
0
4096
-4096
8192
0
4096
-4096
8192
0
4096
-4096
8192
0
4096
-4096
8192
0
4096
-4096
8192
0
4096
-4096
8192
0
4096
-4096
8192
0
4096
-4096
8192
0
4096
-4096
8192
0
4096
-4096
8192
0
4096
-4096
8192
0
4096
-4096
8192
0
4096
-4096
8192
0
4096
-4096
8192
0
4096
-4096
8192
0
4096
-4096
8192
0
4096
-4096
8192
0
4096
-4096
8192
0
4096
-4096
8192
0
4096
-4096
8192
0
4096
-4096
8192
0
4096
-4096
8192
0
4096
-4096
8192
0
4096
-4096
8192
0
4096
-4096
8192
0
4096
-4096
8192
0
4096
-4096
8192
0
4096
-4096
8192
0
4096
-4096
8192
0
4096
-4096
8192
0
4096
-4096
8192
0
4096
-4096
8192
0
4096
-4096
8192
0
4096
-4096
8192
0
4096
-4096
8192
0
4096
-4096
8192
0
4096
-4096
8192
0
4096
-4096
8192
0
4096
-4096
8192
0
4096
-4096
8192
0
4096
-4096
8192
0
4096
-4096
8192
0
4096
-4096
8192
0
4096
-4096
8192
0
4096
-4096
8192
0
4096
-4096
8192
0
4096
-4096
8192
0
4096
-4096
8192
0
4096
-4096
8192
0
4096
-4096
8192
0
4096
-4096
8192
0
4096
-4096
8192
0
4096
-4096
8192
0
4096
-4096
8192
0
4096
-4096
8192
0
4096
-4096
8192
0
4096
-4096
8192
0
4096
-4096
8192
0
4096
-4096
8192
0
4096
-4096
8192
0
4096
-4096
8192
0
4096
-4096
8192
0
4096
-4096
8192
0
4096
-4096
8192
0
4096
-4096
8192
0
4096
-4096
8192
0
4096
-4096
8192
0
4096
-4096
8192
0
4096
-4096
8192
0
4096
-4096
8192
0
4096
-4096
8192
0
4096
-4096
8192
0
4096
-4096
8192
0
4096
-4096
8192
0
4096
-4096
8192
0
4096
-4096
8192
0
4096
-4096
8192
0
4096
-4096
8192
0
4096
-4096
8192
0
4096
-4096
8192
0
4096
-4096
8192
0
4096
-4096
8192
0
4096
-4096
8192
0
4096
-4096
8192
0
4096
-4096
8192
0
4096
-4096
8192
0
4096
-4096
8192
0
4096
-4096
8192
0
4096
-4096
8192
0
4096
-4096
8192
0
4096
-4096
8192
0
4096
-4096
8192
0
4096
-4096
8192
0
4096
-4096
8192
0
4096
-4096
8192
0
4096
-4096
8192
0
4096
-4096
8192
0
4096
-4096
8192
0
4096
-4096
8192
0
4096
-4096
8192
0
4096
-4096
8192
0
4096
-4096
8192
0
4096
-4096
8192
0
4096
-4096
8192
0
4096
-4096
8192
0
4096
-4096
8192
0
4096
-4096
8192
0
4096
-4096
8192
0
4096
-4096
8192
0
4096
-4096
8192
0
4096
-4096
8192
0
4096
-4096
8192
0
4096
-4096
8192
0
4096
-4096
8192
0
4096
-4096
8192
0
4096
-4096
8192
0
4096
-4096
8192
0
4096
-4096
8192
0
4096
-4096
8192
0
4096
-4096
8192
0
4096
-4096
8192
0
4096
-4096
8192
0
4096
-4096
8192
0
4096
-4096
8192
0
4096
-4096
8192
0
4096
-4096
8192
0
4096
-4096
8192
0
4096
-4096
8192
0
4096
-4096
8192
0
4096
-4096
8192
0
4096
-4096
8192
0
4096
-4096
8192
0
4096
-4096
8192
0
4096
-4096
8192
0
4096
-4096
8192
0
4096
-4096
8192
0
4096
-4096
8192
0
4096
-4096
8192
0
4096
-4096
8192
0
4096
-4096
8192
0
4096
-4096
8192
0
4096
-4096
8192
0
4096
-4096
8192
0
4096
-4096
8192
0
4096
-4096
8192
0
4096
-4096
8192
0
4096
-4096
8192
0
4096
-4096
8192
0
4096
-4096
8192
0
4096
-4096
8192
0
4096
-4096
8192
0
4096
-4096
8192
0
4096
-4096
8192
0
4096
-4096
8192
0
4096
-4096
8192
0
4096
-4096
8192
0
4096
-4096
8192
0
4096
-4096
8192
0
4096
-4096
8192
0
4096
-4096
8192
0
4096
-4096
8192
0
4096
-4096
8192
0
4096
-4096
8192
0
4096
-4096
8192
0
4096
-4096
8192
0
4096
-4096
8192
0
4096
-4096
8192
0
4096
-4096
8192
0
4096
-4096
8192
0
4096
-4096
8192
0
4096
-4096
8192
0
4096
-4096
8192
0
4096
-4096
8192
0
4096
-4096
8192
0
4096
-4096
8192
0
4096
-4096
8192
0
4096
-4096
8192
0
4096
-4096
8192
0
4096
-4096
8192
0
4096
-4096
8192
0
4096
-4096
8192
0
4096
-4096
8192
0
4096
-4096
8192
0
4096
-4096
8192
0
4096
-4096
8192
0
4096
-4096
8192
0
4096
-4096
8192
0
4096
-4096
8192
0
4096
-4096
8192
0
4096
-4096
8192
0
4096
-4096
8192
0
4096
-4096
8192
0
4096
-4096
8192
0
4096
-4096
8192
0
4096
-4096
8192
0
4096
-4096
8192
0
4096
-4096
8192
0
4096
-4096
8192
0
4096
-4096
8192
0
4096
-4096
8192
0
4096
-4096
8192
0
4096
-4096
8192
0
4096
-4096
8192
0
4096
-4096
8192
0
4096
-4096
8192
0
4096
-4096
8192
0
4096
-4096
8192
0
4096
-4096
8192
0
4096
-4096
8192
0
4096
-4096
8192
0
4096
-4096
8192
0
4096
-4096
8192
0
4096
-4096
8192
0
4096
-4096
8192
0
4096
-4096
8192
0
4096
-4096
8192
0
4096
-4096
8192
0
4096
-4096
8192
0
4096
-4096
8192
0
4096
-4096
8192
0
4096
-4096
8192
0
4096
-4096
8192
0
4096
-4096
8192
0
4096
-4096
8192
0
4096
-4096
8192
0
4096
-4096
8192
0
4096
-4096
8192
0
4096
-4096
8192
0
4096
-4096
8192
0
4096
-4096
8192
0
4096
-4096
8192
0
4096
-4096
8192
0
4096
-4096
8192
0
4096
-4096
8192
0
4096
-4096
8192
0
4096
-4096
8192
0
4096
-4096
8192
0
4096
-4096
8192
0
4096
-4096
8192
0
4096
-4096
8192
0
4096
-4096
8192
0
4096
-4096
8192
0
4096
-4096
8192
0
4096
-4096
8192
0
4096
-4096
8192
0
4096
-4096
8192
0
4096
-4096
8192
0
4096
-4096
8192
0
4096
-4096
8192
0
4096
-4096
8192
0
4096
-4096
8192
0
4096
-4096
8192
0
4096
-4096
8192
0
4096
-4096
8192
0
4096
-4096
8192
0
4096
-4096
8192
0
4096
-4096
8192
0
4096
-4096
8192
0
4096
-4096
8192
0
4096
-4096
8192
0
4096
-4096
8192
0
4096
-4096
8192
0
4096
-4096
8192
0
4096
-4096
8192
0
4096
-4096
8192
0
4096
-4096
8192
0
4096
-4096
8192
0
4096
-4096
8192
0
4096
-4096
8192
0
4096
-4096
8192
0
4096
-4096
8192
0
4096
-4096
8192
0
4096
-4096
8192
0
4096
-4096
8192
0
4096
-4096
8192
0
4096
-4096
8192
0
4096
-4096
8192
0
4096
-4096
8192
0
4096
-4096
8192
0
4096
-4096
8192
0
4096
-4096
8192
0
4096
-4096
8192
0
4096
-4096
8192
0
4096
-4096
8192
0
4096
-4096
8192
0
4096
-4096
8192
0
4096
-4096
8192
0
4096
-4096
8192
0
4096
-4096
8192
0
4096
-4096
8192
0
4096
-4096
8192
0
4096
-4096
8192
0
4096
-4096
8192
0
4096
-4096
8192
0
4096
-4096
8192
0
4096
-4096
8192
0
4096
-4096
8192
0
4096
-4096
8192
0
4096
-4096
8192
0
4096
-4096
8192
0
4096
-4096
8192
0
4096
-4096
8192
0
4096
-4096
8192
0
4096
-4096
8192
0
4096
-4096
8192
0
4096
-4096
8192
0
4096
-4096
8192
0
4096
-4096
8192
0
4096
-4096
8192
0
4096
-4096
8192
0
4096
-4096
8192
0
4096
-4096
8192
0
4096
-4096
8192
0
4096
-4096
8192
0
4096
-4096
8192
0
4096
-4096
8192
0
4096
-4096
8192
0
4096
-4096
8192
0
4096
-4096
8192
0
4096
-4096
8192
0
4096
-4096
8192
0
4096
-4096
8192
0
4096
-4096
8192
0
4096
-4096
8192
0
4096
-4096
8192
0
4096
-4096
8192
0
4096
-4096
8192
0
4096
-4096
8192
0
4096
-4096
8192
0
4096
-4096
8192
0
4096
-4096
8192
0
4096
-4096
8192
0
4096
-4096
8192
0
4096
-4096
8192
0
4096
-4096
8192
0
4096
-4096
8192
0
4096
-4096
8192
0
4096
-4096
8192
0
4096
-4096
8192
0
4096
-4096
8192
0
4096
-4096
8192
0
4096
-4096
8192
0
4096
-4096
8192
0
4096
-4096
8192
0
4096
-4096
8192
0
4096
-4096
8192
0
4096
-4096
8192
0
4096
-4096
8192
0
4096
-4096
8192
0
4096
-4096
8192
0
4096
-4096
8192
0
4096
-4096
8192
0
4096
-4096
8192
0
4096
-4096
8192
0
4096
-4096
8192
0
4096
-4096
8192
0
4096
-4096
8192
0
4096
-4096
8192
0
4096
-4096
8192
0
4096
-4096
8192
0
4096
-4096
8192
0
4096
-4096
8192
0
4096
-4096
8192
0
4096
-4096
8192
0
4096
-4096
8192
0
4096
-4096
8192
0
4096
-4096
8192
0
4096
-4096
8192
0
4096
-4096
8192
0
4096
-4096
8192
0
4096
-4096
8192
0
4096
-4096
8192
0
4096
-4096
8192
0
4096
-4096
8192
0
4096
-4096
8192
0
4096
-4096
8192
0
4096
-4096
8192
0
4096
-4096
8192
0
4096
-4096
8192
0
4096
-4096
8192
0
4096
-4096
8192
0
4096
-4096
8192
0
4096
-4096
8192
0
4096
-4096
8192
0
4096
-4096
8192
0
4096
-4096
8192
0
4096
-4096
8192
0
4096
-4096
8192
0
4096
-4096
8192
0
4096
-4096
8192
0
4096
-4096
8192
0
4096
-4096
8192
0
4096
-4096
8192
0
4096
-4096
8192
0
4096
-4096
8192
0
4096
-4096
8192
0
4096
-4096
8192
0
4096
-4096
8192
0
4096
-4096
8192
0
4096
-4096
8192
0
4096
-4096
8192
0
4096
-4096
8192
0
4096
-4096
8192
0
4096
-4096
8192
0
4096
-4096
8192
0
4096
-4096
8192
0
4096
-4096
8192
0
4096
-4096
8192
0
4096
-4096
8192
0
4096
-4096
8192
0
4096
-4096
8192
0
4096
-4096
8192
0
4096
-4096
8192
0
4096
-4096
8192
0
4096
-4096
8192
0
4096
-4096
8192
0
4096
-4096
8192
0
4096
-4096
8192
0
4096
-4096
8192
0
4096
-4096
8192
0
4096
-4096
8192
0
4096
-4096
8192
0
4096
-4096
8192
0
4096
-4096
8192
0
4096
-4096
8192
0
4096
-4096
8192
0
4096
-4096
8192
0
4096
-4096
8192
0
4096
-4096
8192
0
4096
-4096
8192
0
4096
-4096
8192
0
4096
-4096
8192
0
4096
-4096
8192
0
4096
-4096
8192
0
4096
-4096
8192
0
4096
-4096
8192
0
4096
-4096
8192
0
4096
-4096
8192
0
4096
-4096
8192
0
4096
-4096
8192
0
4096
-4096
8192
0
4096
-4096
8192
0
4096
-4096
8192
0
4096
-4096
8192
0
4096
-4096
8192
0
4096
-4096
8192
0
4096
-4096
8192
0
4096
-4096
8192
0
4096
-4096
8192
0
4096
-4096
8192
0
4096
-4096
8192
0
4096
-4096
8192
0
4096
-4096
8192
0
4096
-4096
8192
0
4096
-4096
8192
0
4096
-4096
8192
0
4096
-4096
8192
0
4096
-4096
8192
0
4096
-4096
8192
0
4096
-4096
8192
0
4096
-4096
8192
0
4096
-4096
8192
0
4096
-4096
8192
0
4096
-4096
8192
0
4096
-4096
8192
0
4096
-4096
8192
0
4096
-4096
8192
0
4096
-4096
8192
0
4096
-4096
8192
0
4096
-4096
8192
0
4096
-4096
8192
0
4096
-4096
8192
0
4096
-4096
8192
0
4096
-4096
8192
0
4096
-4096
8192
0
4096
-4096
8192
0
4096
-4096
8192
0
4096
-4096
8192
0
4096
-4096
8192
0
4096
-4096
8192
0
4096
-4096
8192
0
4096
-4096
8192
0
4096
-4096
8192
0
4096
-4096
8192
0
4096
-4096
8192
0
4096
-4096
8192
0
4096
-4096
8192
0
4096
-4096
8192
0
4096
-4096
8192
0
4096
-4096
8192
0
4096
-4096
8192
0
4096
-4096
8192
0
4096
-4096
8192
0
4096
-4096
8192
0
4096
-4096
8192
0
4096
-4096
8192
0
4096
-4096
8192
0
4096
-4096
8192
0
4096
-4096
8192
0
4096
-4096
8192
0
4096
-4096
8192
0
4096
-4096
8192
0
4096
-4096
8192
0
4096
-4096
8192
0
4096
-4096
8192
0
4096
-4096
8192
0
4096
-4096
8192
0
4096
-4096
8192
0
4096
-4096
8192
0
4096
-4096
8192
0
4096
-4096
8192
0
4096
-4096
8192
0
4096
-4096
8192
0
4096
-4096
8192
0
4096
-4096
8192
0
4096
-4096
8192
0
4096
-4096
8192
0
4096
-4096
8192
0
4096
-4096
8192
0
4096
-4096
8192
0
4096
-4096
8192
0
4096
-4096
8192
0
4096
-4096
8192
0
4096
-4096
8192
0
4096
-4096
8192
0
4096
-4096
8192
0
4096
-4096
8192
0
4096
-4096
8192
0
4096
-4096
8192
0
4096
-4096
8192
0
4096
-4096
8192
0
4096
-4096
8192
0
4096
-4096
8192
0
4096
-4096
8192
0
4096
-4096
8192
0
4096
-4096
8192
0
4096
-4096
8192
0
4096
-4096
8192
0
4096
-4096
8192
0
4096
-4096
8192
0
4096
-4096
8192
0
4096
-4096
8192
0
4096
-4096
8192
0
4096
-4096
8192
0
4096
-4096
8192
0
4096
-4096
8192
0
4096
-4096
8192
0
4096
-4096
8192
0
4096
-4096
8192
0
4096
-4096
8192
0
4096
-4096
8192
0
4096
-4096
8192
0
4096
-4096
8192
0
4096
-4096
8192
0
4096
-4096
8192
0
4096
-4096
8192
0
4096
-4096
8192
0
4096
-4096
8192
0
4096
-4096
8192
0
4096
-4096
8192
0
4096
-4096
8192
0
4096
-4096
8192
0
4096
-4096
8192
0
4096
-4096
8192
0
4096
-4096
8192
0
4096
-4096
8192
0
4096
-4096
8192
0
4096
-4096
8192
0
4096
-4096
8192
0
4096
-4096
8192
0
4096
-4096
8192
0
4096
-4096
8192
0
4096
-4096
8192
0
4096
-4096
8192
0
4096
-4096
8192
0
4096
-4096
8192
0
4096
-4096
8192
0
4096
-4096
8192
0
4096
-4096
8192
0
4096
-4096
8192
0
4096
-4096
8192
0
4096
-4096
8192
0
4096
-4096
8192
0
4096
-4096
8192
0
4096
-4096
8192
0
4096
-4096
8192
0
4096
-4096
8192
0
4096
-4096
8192
0
4096
-4096
8192
0
4096
-4096
8192
0
4096
-4096
8192
0
4096
-4096
8192
0
4096
-4096
8192
0
4096
-4096
8192
0
4096
-4096
8192
0
4096
-4096
8192
0
4096
-4096
8192
0
4096
-4096
8192
0
4096
-4096
8192
0
4096
-4096
8192
0
4096
-4096
8192
0
4096
-4096
8192
0
4096
-4096
8192
0
4096
-4096
8192
0
4096
-4096
8192
0
4096
-4096
8192
0
4096
-4096
8192
0
4096
-4096
8192
0
4096
-4096
8192
0
4096
-4096
8192
0
4096
-4096
8192
0
4096
-4096
8192
0
4096
-4096
8192
0
4096
-4096
8192
0
4096
-4096
8192
0
4096
-4096
8192
0
4096
-4096
8192
0
4096
-4096
8192
0
4096
-4096
8192
0
4096
-4096
8192
0
4096
-4096
8192
0
4096
-4096
8192
0
4096
-4096
8192
0
4096
-4096
8192
0
4096
-4096
8192
0
4096
-4096
8192
0
4096
-4096
8192
0
4096
-4096
8192
0
4096
-4096
8192
0
4096
-4096
8192
0
4096
-4096
8192
0
4096
-4096
8192
0
4096
-4096
8192
0
4096
-4096
8192
0
4096
-4096
8192
0
4096
-4096
8192
0
4096
-4096
8192
0
4096
-4096
8192
0
4096
-4096
8192
0
4096
-4096
8192
0
4096
-4096
8192
0
4096
-4096
8192
0
4096
-4096
8192
0
4096
-4096
8192
0
4096
-4096
8192
0
4096
-4096
8192
0
4096
-4096
8192
0
4096
-4096
8192
0
4096
-4096
8192
0
4096
-4096
8192
0
4096
-4096
8192
0
4096
-4096
8192
0
4096
-4096
8192
0
4096
-4096
8192
0
4096
-4096
8192
0
4096
-4096
8192
0
4096
-4096
8192
0
4096
-4096
8192
0
4096
-4096
8192
0
4096
-4096
8192
0
4096
-4096
8192
0
4096
-4096
8192
0
4096
-4096
8192
0
4096
-4096
8192
0
4096
-4096
8192
0
4096
-4096
8192
0
4096
-4096
8192
0
4096
-4096
8192
0
4096
-4096
8192
0
4096
-4096
8192
0
4096
-4096
8192
0
4096
-4096
8192
0
4096
-4096
8192
0
4096
-4096
8192
0
4096
-4096
8192
0
4096
-4096
8192
0
4096
-4096
8192
0
4096
-4096
8192
0
4096
-4096
8192
0
4096
-4096
8192
0
4096
-4096
8192
0
4096
-4096
8192
0
4096
-4096
8192
0
4096
-4096
8192
0
4096
-4096
8192
0
4096
-4096
8192
0
4096
-4096
8192
0
4096
-4096
8192
0
4096
-4096
8192
0
4096
-4096
8192
0
4096
-4096
8192
0
4096
-4096
8192
0
4096
-4096
8192
0
4096
-4096
8192
0
4096
-4096
8192
0
4096
-4096
8192
0
4096
-4096
8192
0
4096
-4096
8192
0
4096
-4096
8192
0
4096
-4096
8192
0
4096
-4096
8192
0
4096
-4096
8192
0
4096
-4096
8192
0
4096
-4096
8192
0
4096
-4096
8192
0
4096
-4096
8192
0
4096
-4096
8192
0
4096
-4096
8192
0
4096
-4096
8192
0
4096
-4096
8192
0
4096
-4096
8192
0
4096
-4096
8192
0
4096
-4096
8192
0
4096
-4096
8192
0
4096
-4096
8192
0
4096
-4096
8192
0
4096
-4096
8192
0
4096
-4096
8192
0
4096
-4096
8192
0
4096
-4096
8192
0
4096
-4096
8192
0
4096
-4096
8192
0
4096
-4096
8192
0
4096
-4096
8192
0
4096
-4096
8192
0
4096
-4096
8192
0
4096
-4096
8192
0
4096
-4096
8192
0
4096
-4096
8192
0
4096
-4096
8192
0
4096
-4096
8192
0
4096
-4096
8192
0
4096
-4096
8192
0
4096
-4096
8192
0
4096
-4096
8192
0
4096
-4096
8192
0
4096
-4096
8192
0
4096
-4096
8192
0
4096
-4096
8192
0
4096
-4096
8192
0
4096
-4096
8192
0
4096
-4096
8192
0
4096
-4096
8192
0
4096
-4096
8192
0
4096
-4096
8192
0
4096
-4096
8192
0
4096
-4096
8192
0
4096
-4096
8192
0
4096
-4096
8192
0
4096
-4096
8192
0
4096
-4096
8192
0
4096
-4096
8192
0
4096
-4096
8192
0
4096
-4096
8192
0
4096
-4096
8192
0
4096
-4096
8192
0
4096
-4096
8192
0
4096
-4096
8192
0
4096
-4096
8192
0
4096
-4096
8192
0
4096
-4096
8192
0
4096
-4096
8192
0
4096
-4096
8192
0
4096
-4096
8192
0
4096
-4096
8192
0
4096
-4096
8192
0
4096
-4096
8192
0
4096
-4096
8192
0
4096
-4096
8192
0
4096
-4096
8192
0
4096
-4096
8192
0
4096
-4096
8192
0
4096
-4096
8192
0
4096
-4096
8192
0
4096
-4096
8192
0
4096
-4096
8192
0
4096
-4096
8192
0
4096
-4096
8192
0
4096
-4096
8192
0
4096
-4096
8192
0
4096
-4096
8192
0
4096
-4096
8192
0
4096
-4096
8192
0
4096
-4096
8192
0
4096
-4096
8192
0
4096
-4096
8192
0
4096
-4096
8192
0
4096
-4096
8192
0
4096
-4096
8192
0
4096
-4096
8192
0
4096
-4096
8192
0
4096
-4096
8192
0
4096
-4096
8192
0
4096
-4096
8192
0
4096
-4096
8192
0
4096
-4096
8192
0
4096
-4096
8192
0
4096
-4096
8192
0
4096
-4096
8192
0
4096
-4096
8192
0
4096
-4096
8192
0
4096
-4096
8192
0
4096
-4096
8192
0
4096
-4096
8192
0
4096
-4096
8192
0
4096
-4096
8192
0
4096
-4096
8192
0
4096
-4096
8192
0
4096
-4096
8192
0
4096
-4096
8192
0
4096
-4096
8192
0
4096
-4096
8192
0
4096
-4096
8192
0
4096
-4096
8192
0
4096
-4096
8192
0
4096
-4096
8192
0
4096
-4096
8192
0
4096
-4096
8192
0
4096
-4096
8192
0
4096
-4096
8192
0
4096
-4096
8192
0
4096
-4096
8192
0
4096
-4096
8192
0
4096
-4096
8192
0
4096
-4096
8192
0
4096
-4096
8192
0
4096
-4096
8192
0
4096
-4096
8192
0
4096
-4096
8192
0
4096
-4096
8192
0
4096
-4096
8192
0
4096
-4096
8192
0
4096
-4096
8192
0
4096
-4096
8192
0
4096
-4096
8192
0
4096
-4096
8192
0
4096
-4096
8192
0
4096
-4096
8192
0
4096
-4096
8192
0
4096
-4096
8192
0
4096
-4096
8192
0
4096
-4096
8192
0
4096
-4096
8192
0
4096
-4096
8192
0
4096
-4096
8192
0
4096
-4096
8192
0
4096
-4096
8192
0
4096
-4096
8192
0
4096
-4096
8192
0
4096
-4096
8192
0
4096
-4096
8192
0
4096
-4096
8192
0
4096
-4096
8192
0
4096
-4096
8192
0
4096
-4096
8192
0
4096
-4096
8192
0
4096
-4096
8192
0
4096
-4096
8192
0
4096
-4096
8192
0
4096
-4096
8192
0
4096
-4096
8192
0
4096
-4096
8192
0
4096
-4096
8192
0
4096
-4096
8192
0
4096
-4096
8192
0
4096
-4096
8192
0
4096
-4096
8192
0
4096
-4096
8192
0
4096
-4096
8192
0
4096
-4096
8192
0
4096
-4096
8192
0
4096
-4096
8192
0
4096
-4096
8192
0
4096
-4096
8192
0
4096
-4096
8192
0
4096
-4096
8192
0
4096
-4096
8192
0
4096
-4096
8192
0
4096
-4096
8192
0
4096
-4096
8192
0
4096
-4096
8192
0
4096
-4096
8192
0
4096
-4096
8192
0
4096
-4096
8192
0
4096
-4096
8192
0
4096
-4096
8192
0
4096
-4096
8192
0
4096
-4096
8192
0
4096
-4096
8192
0
4096
-4096
8192
0
4096
-4096
8192
0
4096
-4096
8192
0
4096
-4096
8192
0
4096
-4096
8192
0
4096
-4096
8192
0
4096
-4096
8192
0
4096
-4096
8192
0
4096
-4096
8192
0
4096
-4096
8192
0
4096
-4096
8192
0
4096
-4096
8192
0
4096
-4096
8192
0
4096
-4096
8192
0
4096
-4096
8192
0
4096
-4096
8192
0
4096
-4096
8192
0
4096
-4096
8192
0
4096
-4096
8192
0
4096
-4096
8192
0
4096
-4096
8192
0
4096
-4096
8192
0
4096
-4096
8192
0
4096
-4096
8192
0
4096
-4096
8192
0
4096
-4096
8192
0
4096
-4096
8192
0
4096
-4096
8192
0
4096
-4096
8192
0
4096
-4096
8192
0
4096
-4096
8192
0
4096
-4096
8192
0
4096
-4096
8192
0
4096
-4096
8192
0
4096
-4096
8192
0
4096
-4096
8192
0
4096
-4096
8192
0
4096
-4096
8192
0
4096
-4096
8192
0
4096
-4096
8192
0
4096
-4096
8192
0
4096
-4096
8192
0
4096
-4096
8192
0
4096
-4096
8192
0
4096
-4096
8192
0
4096
-4096
8192
0
4096
-4096
8192
0
4096
-4096
8192
0
4096
-4096
8192
0
4096
-4096
8192
0
4096
-4096
8192
0
4096
-4096
8192
0
4096
-4096
8192
0
4096
-4096
8192
0
4096
-4096
8192
0
4096
-4096
8192
0
4096
-4096
8192
0
4096
-4096
8192
0
4096
-4096
8192
0
4096
-4096
8192
0
4096
-4096
8192
0
4096
-4096
8192
0
4096
-4096
8192
0
4096
-4096
8192
0
4096
-4096
8192
0
4096
-4096
8192
0
4096
-4096
8192
0
4096
-4096
8192
0
4096
-4096
8192
0
4096
-4096
8192
0
4096
-4096
8192
0
4096
-4096
8192
0
4096
-4096
8192
0
4096
-4096
8192
0
4096
-4096
8192
0
4096
-4096
8192
0
4096
-4096
8192
0
4096
-4096
8192
0
4096
-4096
8192
0
4096
-4096
8192
0
4096
-4096
8192
0
4096
-4096
8192
0
4096
-4096
8192
0
4096
-4096
8192
0
4096
-4096
8192
0
4096
-4096
8192
0
4096
-4096
8192
0
4096
-4096
8192
0
4096
-4096
8192
0
4096
-4096
8192
0
4096
-4096
8192
0
4096
-4096
8192
0
4096
-4096
8192
0
4096
-4096
8192
0
4096
-4096
8192
0
4096
-4096
8192
0
4096
-4096
8192
0
4096
-4096
8192
0
4096
-4096
8192
0
4096
-4096
8192
0
4096
-4096
8192
0
4096
-4096
8192
0
4096
-4096
8192
0
4096
-4096
8192
0
4096
-4096
8192
0
4096
-4096
8192
0
4096
-4096
8192
0
4096
-4096
8192
0
4096
-4096
8192
0
4096
-4096
8192
0
4096
-4096
8192
0
4096
-4096
8192
0
4096
-4096
8192
0
4096
-4096
8192
0
4096
-4096
8192
0
4096
-4096
8192
0
4096
-4096
8192
0
4096
-4096
8192
0
4096
-4096
8192
0
4096
-4096
8192
0
4096
-4096
8192
0
4096
-4096
8192
0
4096
-4096
8192
0
4096
-4096
8192
0
4096
-4096
8192
0
4096
-4096
8192
0
4096
-4096
8192
0
4096
-4096
8192
0
4096
-4096
8192
0
4096
-4096
8192
0
4096
-4096
8192
0
4096
-4096
8192
0
4096
-4096
8192
0
4096
-4096
8192
0
4096
-4096
8192
0
4096
-4096
8192
0
4096
-4096
8192
0
4096
-4096
8192
0
4096
-4096
8192
0
4096
-4096
8192
0
4096
-4096
8192
0
4096
-4096
8192
0
4096
-4096
8192
0
4096
-4096
8192
0
4096
-4096
8192
0
4096
-4096
8192
0
4096
-4096
8192
0
4096
-4096
8192
0
4096
-4096
8192
0
4096
-4096
8192
0
4096
-4096
8192
0
4096
-4096
8192
0
4096
-4096
8192
0
4096
-4096
8192
0
4096
-4096
8192
0
4096
-4096
8192
0
4096
-4096
8192
0
4096
-4096
8192
0
4096
-4096
8192
0
4096
-4096
8192
0
4096
-4096
8192
0
4096
-4096
8192
0
4096
-4096
8192
0
4096
-4096
8192
0
4096
-4096
8192
0
4096
-4096
8192
0
4096
-4096
8192
0
4096
-4096
8192
0
4096
-4096
8192
0
4096
-4096
8192
0
4096
-4096
8192
0
4096
-4096
8192
0
4096
-4096
8192
0
4096
-4096
8192
0
4096
-4096
8192
0
4096
-4096
8192
0
4096
-4096
8192
0
4096
-4096
8192
0
4096
-4096
8192
0
4096
-4096
8192
0
4096
-4096
8192
0
4096
-4096
8192
0
4096
-4096
8192
0
4096
-4096
8192
0
4096
-4096
8192
0
4096
-4096
8192
0
4096
-4096
8192
0
4096
-4096
8192
0
4096
-4096
8192
0
4096
-4096
8192
0
4096
-4096
8192
0
4096
-4096
8192
0
4096
-4096
8192
0
4096
-4096
8192
0
4096
-4096
8192
0
4096
-4096
8192
0
4096
-4096
8192
0
4096
-4096
8192
0
4096
-4096
8192
0
4096
-4096
8192
0
4096
-4096
8192
0
4096
-4096
8192
0
4096
-4096
8192
0
4096
-4096
8192
0
4096
-4096
8192
0
4096
-4096
8192
0
4096
-4096
8192
0
4096
-4096
8192
0
4096
-4096
8192
0
4096
-4096
8192
0
4096
-4096
8192
0
4096
-4096
8192
0
4096
-4096
8192
0
4096
-4096
8192
0
4096
-4096
8192
0
4096
-4096
8192
0
4096
-4096
8192
0
4096
-4096
8192
0
4096
-4096
8192
0
4096
-4096
8192
0
4096
-4096
8192
0
4096
-4096
8192
0
4096
-4096
8192
0
4096
-4096
8192
0
4096
-4096
8192
0
4096
-4096
8192
0
4096
-4096
8192
0
4096
-4096
8192
0
4096
-4096
8192
0
4096
-4096
8192
0
4096
-4096
8192
0
4096
-4096
8192
0
4096
-4096
8192
0
4096
-4096
8192
0
4096
-4096
8192
0
4096
-4096
8192
0
4096
-4096
8192
0
4096
-4096
8192
0
4096
-4096
8192
0
4096
-4096
8192
0
4096
-4096
8192
0
4096
-4096
8192
0
4096
-4096
8192
0
4096
-4096
8192
0
4096
-4096
8192
0
4096
-4096
8192
0
4096
-4096
8192
0
4096
-4096
8192
0
4096
-4096
8192
0
4096
-4096
8192
0
4096
-4096
8192
0
4096
-4096
8192
0
4096
-4096
8192
0
4096
-4096
8192
0
4096
-4096
8192
0
4096
-4096
8192
0
4096
-4096
8192
0
4096
-4096
8192
0
4096
-4096
8192
0
4096
-4096
8192
0
4096
-4096
8192
0
4096
-4096
8192
0
4096
-4096
8192
0
4096
-4096
8192
0
4096
-4096
8192
0
4096
-4096
8192
0
4096
-4096
8192
0
4096
-4096
8192
0
4096
-4096
8192
0
4096
-4096
8192
0
4096
-4096
8192
0
4096
-4096
8192
0
4096
-4096
8192
0
4096
-4096
8192
0
4096
-4096
8192
0
4096
-4096
8192
0
4096
-4096
8192
0
4096
-4096
8192
0
4096
-4096
8192
0
4096
-4096
8192
0
4096
-4096
8192
0
4096
-4096
8192
0
4096
-4096
8192
0
4096
-4096
8192
0
4096
-4096
8192
0
4096
-4096
8192
0
4096
-4096
8192
0
4096
-4096
8192
0
4096
-4096
8192
0
4096
-4096
8192
0
4096
-4096
8192
0
4096
-4096
8192
0
4096
-4096
8192
0
4096
-4096
8192
0
4096
-4096
8192
0
4096
-4096
8192
0
4096
-4096
8192
0
4096
-4096
8192
0
4096
-4096
8192
0
4096
-4096
8192
0
4096
-4096
8192
0
4096
-4096
8192
0
4096
-4096
8192
0
4096
-4096
8192
0
4096
-4096
8192
0
4096
-4096
8192
0
4096
-4096
8192
0
4096
-4096
8192
0
4096
-4096
8192
0
4096
-4096
8192
0
4096
-4096
8192
0
4096
-4096
8192
0
4096
-4096
8192
0
4096
-4096
8192
0
4096
-4096
8192
0
4096
-4096
8192
0
4096
-4096
8192
0
4096
-4096
8192
0
4096
-4096
8192
0
4096
-4096
8192
0
4096
-4096
8192
0
4096
-4096
8192
0
4096
-4096
8192
0
4096
-4096
8192
0
4096
-4096
8192
0
4096
-4096
8192
0
4096
-4096
8192
0
4096
-4096
8192
0
4096
-4096
8192
0
4096
-4096
8192
0
4096
-4096
8192
0
4096
-4096
8192
0
4096
-4096
8192
0
4096
-4096
8192
0
4096
-4096
8192
0
4096
-4096
8192
0
4096
-4096
8192
0
4096
-4096
8192
0
4096
-4096
8192
0
4096
-4096
8192
0
4096
-4096
8192
0
4096
-4096
8192
0
4096
-4096
8192
0
4096
-4096
8192
0
4096
-4096
8192
0
4096
-4096
8192
0
4096
-4096
8192
0
4096
-4096
8192
0
4096
-4096
8192
0
4096
-4096
8192
0
4096
-4096
8192
0
4096
-4096
8192
0
4096
-4096
8192
0
4096
-4096
8192
0
4096
-4096
8192
0
4096
-4096
8192
0
4096
-4096
8192
0
4096
-4096
8192
0
4096
-4096
8192
0
4096
-4096
8192
0
4096
-4096
8192
0
4096
-4096
8192
0
4096
-4096
8192
0
4096
-4096
8192
0
4096
-4096
8192
0
4096
-4096
8192
0
4096
-4096
8192
0
4096
-4096
8192
0
4096
-4096
8192
0
4096
-4096
8192
0
4096
-4096
8192
0
4096
-4096
8192
0
4096
-4096
8192
0
4096
-4096
8192
0
4096
-4096
8192
0
4096
-4096
8192
0
4096
-4096
8192
0
4096
-4096
8192
0
4096
-4096
8192
0
4096
-4096
8192
0
4096
-4096
8192
0
4096
-4096
8192
0
4096
-4096
8192
0
4096
-4096
8192
0
4096
-4096
8192
0
4096
-4096
8192
0
4096
-4096
8192
0
4096
-4096
8192
0
4096
-4096
8192
0
4096
-4096
8192
0
4096
-4096
8192
0
4096
-4096
8192
0
4096
-4096
8192
0
4096
-4096
8192
0
4096
-4096
8192
0
4096
-4096
8192
0
4096
-4096
8192
0
4096
-4096
8192
0
4096
-4096
8192
0
4096
-4096
8192
0
4096
-4096
8192
0
4096
-4096
8192
0
4096
-4096
8192
0
4096
-4096
8192
0
4096
-4096
8192
0
4096
-4096
8192
0
4096
-4096
8192
0
4096
-4096
8192
0
4096
-4096
8192
0
4096
-4096
8192
0
4096
-4096
8192
0
4096
-4096
8192
0
4096
-4096
8192
0
4096
-4096
8192
0
4096
-4096
8192
0
4096
-4096
8192
0
4096
-4096
8192
0
4096
-4096
8192
0
4096
-4096
8192
0
4096
-4096
8192
0
4096
-4096
8192
0
4096
-4096
8192
0
4096
-4096
8192
0
4096
-4096
8192
0
4096
-4096
8192
0
4096
-4096
8192
0
4096
-4096
8192
0
4096
-4096
8192
0
4096
-4096
8192
0
4096
-4096
8192
0
4096
-4096
8192
0
4096
-4096
8192
0
4096
-4096
8192
0
4096
-4096
8192
0
4096
-4096
8192
0
4096
-4096
8192
0
4096
-4096
8192
0
4096
-4096
8192
0
4096
-4096
8192
0
4096
-4096
8192
0
4096
-4096
8192
0
4096
-4096
8192
0
4096
-4096
8192
0
4096
-4096
8192
0
4096
-4096
8192
0
4096
-4096
8192
0
4096
-4096
8192
0
4096
-4096
8192
0
4096
-4096
8192
0
4096
-4096
8192
0
4096
-4096
8192
0
4096
-4096
8192
0
4096
-4096
8192
0
4096
-4096
8192
0
4096
-4096
8192
0
4096
-4096
8192
0
4096
-4096
8192
0
4096
-4096
8192
0
4096
-4096
8192
0
4096
-4096
8192
0
4096
-4096
8192
0
4096
-4096
8192
0
4096
-4096
8192
0
4096
-4096
8192
0
4096
-4096
8192
0
4096
-4096
8192
0
4096
-4096
8192
0
4096
-4096
8192
0
4096
-4096
8192
0
4096
-4096
8192
0
4096
-4096
8192
0
4096
-4096
8192
0
4096
-4096
8192
0
4096
-4096
8192
0
4096
-4096
8192
0
4096
-4096
8192
0
4096
-4096
8192
0
4096
-4096
8192
0
4096
-4096
8192
0
4096
-4096
8192
0
4096
-4096
8192
0
4096
-4096
8192
0
4096
-4096
8192
0
4096
-4096
8192
0
4096
-4096
8192
0
4096
-4096
8192
0
4096
-4096
8192
0
4096
-4096
8192
0
4096
-4096
8192
0
4096
-4096
8192
0
4096
-4096
8192
0
4096
-4096
8192
0
4096
-4096
8192
0
4096
-4096
8192
0
4096
-4096
8192
0
4096
-4096
8192
0
4096
-4096
8192
0
4096
-4096
8192
0
4096
-4096
8192
0
4096
-4096
8192
0
4096
-4096
8192
0
4096
-4096
8192
0
4096
-4096
8192
0
4096
-4096
8192
0
4096
-4096
8192
0
4096
-4096
8192
0
4096
-4096
8192
0
4096
-4096
8192
0
4096
-4096
8192
0
4096
-4096
8192
0
4096
-4096
8192
0
4096
-4096
8192
0
4096
-4096
8192
0
4096
-4096
8192
0
4096
-4096
8192
0
4096
-4096
8192
0
4096
-4096
8192
0
4096
-4096
8192
0
4096
-4096
8192
0
4096
-4096
8192
0
4096
-4096
8192
0
4096
-4096
8192
0
4096
-4096
8192
0
4096
-4096
8192
0
4096
-4096
8192
0
4096
-4096
8192
0
4096
-4096
8192
0
4096
-4096
8192
0
4096
-4096
8192
0
4096
-4096
8192
0
4096
-4096
8192
0
4096
-4096
8192
0
4096
-4096
8192
0
4096
-4096
8192
0
4096
-4096
8192
0
4096
-4096
8192
0
4096
-4096
8192
0
4096
-4096
8192
0
4096
-4096
8192
0
4096
-4096
8192
0
4096
-4096
8192
0
4096
-4096
8192
0
4096
-4096
8192
0
4096
-4096
8192
0
4096
-4096
8192
0
4096
-4096
8192
0
4096
-4096
8192
0
4096
-4096
8192
0
4096
-4096
8192
0
4096
-4096
8192
0
4096
-4096
8192
0
4096
-4096
8192
0
4096
-4096
8192
0
4096
-4096
8192
0
4096
-4096
8192
0
4096
-4096
8192
0
4096
-4096
8192
0
4096
-4096
8192
0
4096
-4096
8192
0
4096
-4096
8192
0
4096
-4096
8192
0
4096
-4096
8192
0
4096
-4096
8192
0
4096
-4096
8192
0
4096
-4096
8192
0
4096
-4096
8192
0
4096
-4096
8192
0
4096
-4096
8192
0
4096
-4096
8192
0
4096
-4096
8192
0
4096
-4096
8192
0
4096
-4096
8192
0
4096
-4096
8192
0
4096
-4096
8192
0
4096
-4096
8192
0
4096
-4096
8192
0
4096
-4096
8192
0
4096
-4096
8192
0
4096
-4096
8192
0
4096
-4096
8192
0
4096
-4096
8192
0
4096
-4096
8192
0
4096
-4096
8192
0
4096
-4096
8192
0
4096
-4096
8192
0
4096
-4096
8192
0
4096
-4096
8192
0
4096
-4096
8192
0
4096
-4096
8192
0
4096
-4096
8192
0
4096
-4096
8192
0
4096
-4096
8192
0
4096
-4096
8192
0
4096
-4096
8192
0
4096
-4096
8192
0
4096
-4096
8192
0
4096
-4096
8192
0
4096
-4096
8192
0
4096
-4096
8192
0
4096
-4096
8192
0
4096
-4096
8192
0
4096
-4096
8192
0
4096
-4096
8192
0
4096
-4096
8192
0
4096
-4096
8192
0
4096
-4096
8192
0
4096
-4096
8192
0
4096
-4096
8192
0
4096
-4096
8192
0
4096
-4096
8192
0
4096
-4096
8192
0
4096
-4096
8192
0
4096
-4096
8192
0
4096
-4096
8192
0
4096
-4096
8192
0
4096
-4096
8192
0
4096
-4096
8192
0
4096
-4096
8192
0
4096
-4096
8192
0
4096
-4096
8192
0
4096
-4096
8192
0
4096
-4096
8192
0
4096
-4096
8192
0
4096
-4096
8192
0
4096
-4096
8192
0
4096
-4096
8192
0
4096
-4096
8192
0
4096
-4096
8192
0
4096
-4096
8192
0
4096
-4096
8192
0
4096
-4096
8192
0
4096
-4096
8192
0
4096
-4096
8192
0
4096
-4096
8192
0
4096
-4096
8192
0
4096
-4096
8192
0
4096
-4096
8192
0
4096
-4096
8192
0
4096
-4096
8192
0
4096
-4096
8192
0
4096
-4096
8192
0
4096
-4096
8192
0
4096
-4096
8192
0
4096
-4096
8192
0
4096
-4096
8192
0
4096
-4096
8192
0
4096
-4096
8192
0
4096
-4096
8192
0
4096
-4096
8192
0
4096
-4096
8192
0
4096
-4096
8192
0
4096
-4096
8192
0
4096
-4096
8192
0
4096
-4096
8192
0
4096
-4096
8192
0
4096
-4096
8192
0
4096
-4096
8192
0
4096
-4096
8192
0
4096
-4096
8192
0
4096
-4096
8192
0
4096
-4096
8192
0
4096
-4096
8192
0
4096
-4096
8192
0
4096
-4096
8192
0
4096
-4096
8192
0
4096
-4096
8192
0
4096
-4096
8192
0
4096
-4096
8192
0
4096
-4096
8192
0
4096
-4096
8192
0
4096
-4096
8192
0
4096
-4096
8192
0
4096
-4096
8192
0
4096
-4096
8192
0
4096
-4096
8192
0
4096
-4096
8192
0
4096
-4096
8192
0
4096
-4096
8192
0
4096
-4096
8192
0
4096
-4096
8192
0
4096
-4096
8192
0
4096
-4096
8192
0
4096
-4096
8192
0
4096
-4096
8192
0
4096
-4096
8192
0
4096
-4096
8192
0
4096
-4096
8192
0
4096
-4096
8192
0
4096
-4096
8192
0
4096
-4096
8192
0
4096
-4096
8192
0
4096
-4096
8192
0
4096
-4096
8192
0
4096
-4096
8192
0
4096
-4096
8192
0
4096
-4096
8192
0
4096
-4096
8192
0
4096
-4096
8192
0
4096
-4096
8192
0
4096
-4096
8192
0
4096
-4096
8192
0
4096
-4096
8192
0
4096
-4096
8192
0
4096
-4096
8192
0
4096
-4096
8192
0
4096
-4096
8192
0
4096
-4096
8192
0
4096
-4096
8192
0
4096
-4096
8192
0
4096
-4096
8192
0
4096
-4096
8192
0
4096
-4096
8192
0
4096
-4096
8192
0
4096
-4096
8192
0
4096
-4096
8192
0
4096
-4096
8192
0
4096
-4096
8192
0
4096
-4096
8192
0
4096
-4096
8192
0
4096
-4096
8192
0
4096
-4096
8192
0
4096
-4096
8192
0
4096
-4096
8192
0
4096
-4096
8192
0
4096
-4096
8192
0
4096
-4096
8192
0
4096
-4096
8192
0
4096
-4096
8192
0
4096
-4096
8192
0
4096
-4096
8192
0
4096
-4096
8192
0
4096
-4096
8192
0
4096
-4096
8192
0
4096
-4096
8192
0
4096
-4096
8192
0
4096
-4096
8192
0
4096
-4096
8192
0
4096
-4096
8192
0
4096
-4096
8192
0
4096
-4096
8192
0
4096
-4096
8192
0
4096
-4096
8192
0
4096
-4096
8192
0
4096
-4096
8192
0
4096
-4096
8192
0
4096
-4096
8192
0
4096
-4096
8192
0
4096
-4096
8192
0
4096
-4096
8192
0
4096
-4096
8192
0
4096
-4096
8192
0
4096
-4096
8192
0
4096
-4096
8192
0
4096
-4096
8192
0
4096
-4096
8192
0
4096
-4096
8192
0
4096
-4096
8192
0
4096
-4096
8192
0
4096
-4096
8192
0
4096
-4096
8192
0
4096
-4096
8192
0
4096
-4096
8192
0
4096
-4096
8192
0
4096
-4096
8192
0
4096
-4096
8192
0
4096
-4096
8192
0
4096
-4096
8192
0
4096
-4096
8192
0
4096
-4096
8192
0
4096
-4096
8192
0
4096
-4096
8192
0
4096
-4096
8192
0
4096
-4096
8192
0
4096
-4096
8192
0
4096
-4096
8192
0
4096
-4096
8192
0
4096
-4096
8192
0
4096
-4096
8192
0
4096
-4096
8192
0
4096
-4096
8192
0
4096
-4096
8192
0
4096
-4096
8192
0
4096
-4096
8192
0
4096
-4096
8192
0
4096
-4096
8192
0
4096
-4096
8192
0
4096
-4096
8192
0
4096
-4096
8192
0
4096
-4096
8192
0
4096
-4096
8192
0
4096
-4096
8192
0
4096
-4096
8192
0
4096
-4096
8192
0
4096
-4096
8192
0
4096
-4096
8192
0
4096
-4096
8192
0
4096
-4096
8192
0
4096
-4096
8192
0
4096
-4096
8192
0
4096
-4096
8192
0
4096
-4096
8192
0
4096
-4096
8192
0
4096
-4096
8192
0
4096
-4096
8192
0
4096
-4096
8192
0
4096
-4096
8192
0
4096
-4096
8192
0
4096
-4096
8192
0
4096
-4096
8192
0
4096
-4096
8192
0
4096
-4096
8192
0
4096
-4096
8192
0
4096
-4096
8192
0
4096
-4096
8192
0
4096
-4096
8192
0
4096
-4096
8192
0
4096
-4096
8192
0
4096
-4096
8192
0
4096
-4096
8192
0
4096
-4096
8192
0
4096
-4096
8192
0
4096
-4096
8192
0
4096
-4096
8192
0
4096
-4096
8192
0
4096
-4096
8192
0
4096
-4096
8192
0
4096
-4096
8192
0
4096
-4096
8192
0
4096
-4096
8192
0
4096
-4096
8192
0
4096
-4096
8192
0
4096
-4096
8192
0
4096
-4096
8192
0
4096
-4096
8192
0
4096
-4096
8192
0
4096
-4096
8192
0
4096
-4096
8192
0
4096
-4096
8192
0
4096
-4096
8192
0
4096
-4096
8192
0
4096
-4096
8192
0
4096
-4096
8192
0
4096
-4096
8192
0
4096
-4096
8192
0
4096
-4096
8192
0
4096
-4096
8192
0
4096
-4096
8192
0
4096
-4096
8192
0
4096
-4096
8192
0
4096
-4096
8192
0
4096
-4096
8192
0
4096
-4096
8192
0
4096
-4096
8192
0
4096
-4096
8192
0
4096
-4096
8192
0
4096
-4096
8192
0
4096
-4096
8192
0
4096
-4096
8192
0
4096
-4096
8192
0
4096
-4096
8192
0
4096
-4096
8192
0
4096
-4096
8192
0
4096
-4096
8192
0
4096
-4096
8192
0
4096
-4096
8192
0
4096
-4096
8192
0
4096
-4096
8192
0
4096
-4096
8192
0
4096
-4096
8192
0
4096
-4096
8192
0
4096
-4096
8192
0
4096
-4096
8192
0
4096
-4096
8192
0
4096
-4096
8192
0
4096
-4096
8192
0
4096
-4096
8192
0
4096
-4096
8192
0
4096
-4096
8192
0
4096
-4096
8192
0
4096
-4096
8192
0
4096
-4096
8192
0
4096
-4096
8192
0
4096
-4096
8192
0
4096
-4096
8192
0
4096
-4096
8192
0
4096
-4096
8192
0
4096
-4096
8192
0
4096
-4096
8192
0
4096
-4096
8192
0
4096
-4096
8192
0
4096
-4096
8192
0
4096
-4096
8192
0
4096
-4096
8192
0
4096
-4096
8192
0
4096
-4096
8192
0
4096
-4096
8192
0
4096
-4096
8192
0
4096
-4096
8192
0
4096
-4096
8192
0
4096
-4096
8192
0
4096
-4096
8192
0
4096
-4096
8192
0
4096
-4096
8192
0
4096
-4096
8192
0
4096
-4096
8192
0
4096
-4096
8192
0
4096
-4096
8192
0
4096
-4096
8192
0
4096
-4096
8192
0
4096
-4096
8192
0
4096
-4096
8192
0
4096
-4096
8192
0
4096
-4096
8192
0
4096
-4096
8192
0
4096
-4096
8192
0
4096
-4096
8192
0
4096
-4096
8192
0
4096
-4096
8192
0
4096
-4096
8192
0
4096
-4096
8192
0
4096
-4096
8192
0
4096
-4096
8192
0
4096
-4096
8192
0
4096
-4096
8192
0
4096
-4096
8192
0
4096
-4096
8192
0
4096
-4096
8192
0
4096
-4096
8192
0
4096
-4096
8192
0
4096
-4096
8192
0
4096
-4096
8192
0
4096
-4096
8192
0
4096
-4096
8192
0
4096
-4096
8192
0
4096
-4096
8192
0
4096
-4096
8192
0
4096
-4096
8192
0
4096
-4096
8192
0
4096
-4096
8192
0
4096
-4096
8192
0
4096
-4096
8192
0
4096
-4096
8192
0
4096
-4096
8192
0
4096
-4096
8192
0
4096
-4096
8192
0
4096
-4096
8192
0
4096
-4096
8192
0
4096
-4096
8192
0
4096
-4096
8192
0
4096
-4096
8192
0
4096
-4096
8192
0
4096
-4096
8192
0
4096
-4096
8192
0
4096
-4096
8192
0
4096
-4096
8192
0
4096
-4096
8192
0
4096
-4096
8192
0
4096
-4096
8192
0
4096
-4096
8192
0
4096
-4096
8192
0
4096
-4096
8192
0
4096
-4096
8192
0
4096
-4096
8192
0
4096
-4096
8192
0
4096
-4096
8192
0
4096
-4096
8192
0
4096
-4096
8192
0
4096
-4096
8192
0
4096
-4096
8192
0
4096
-4096
8192
0
4096
-4096
8192
0
4096
-4096
8192
0
4096
-4096
8192
0
4096
-4096
8192
0
4096
-4096
8192
0
4096
-4096
8192
0
4096
-4096
8192
0
4096
-4096
8192
0
4096
-4096
8192
0
4096
-4096
8192
0
4096
-4096
8192
0
4096
-4096
8192
0
4096
-4096
8192
0
4096
-4096
8192
0
4096
-4096
8192
0
4096
-4096
8192
0
4096
-4096
8192
0
4096
-4096
8192
0
4096
-4096
8192
0
4096
-4096
8192
0
4096
-4096
8192
0
4096
-4096
8192
0
4096
-4096
8192
0
4096
-4096
8192
0
4096
-4096
8192
0
4096
-4096
8192
0
4096
-4096
8192
0
4096
-4096
8192
0
4096
-4096
8192
0
4096
-4096
8192
0
4096
-4096
8192
0
4096
-4096
8192
0
4096
-4096
8192
0
4096
-4096
8192
0
4096
-4096
8192
0
4096
-4096
8192
0
4096
-4096
8192
0
4096
-4096
8192
0
4096
-4096
8192
0
4096
-4096
8192
0
4096
-4096
8192
0
4096
-4096
8192
0
4096
-4096
8192
0
4096
-4096
8192
0
4096
-4096
8192
0
4096
-4096
8192
0
4096
-4096
8192
0
4096
-4096
8192
0
4096
-4096
8192
0
4096
-4096
8192
0
4096
-4096
8192
0
4096
-4096
8192
0
4096
-4096
8192
0
4096
-4096
8192
0
4096
-4096
8192
0
4096
-4096
8192
0
4096
-4096
8192
0
4096
-4096
8192
0
4096
-4096
8192
0
4096
-4096
8192
0
4096
-4096
8192
0
4096
-4096
8192
0
4096
-4096
8192
0
4096
-4096
8192
0
4096
-4096
8192
0
4096
-4096
8192
0
4096
-4096
8192
0
4096
-4096
8192
0
4096
-4096
8192
0
4096
-4096
8192
0
4096
-4096
8192
0
4096
-4096
8192
0
4096
-4096
8192
0
4096
-4096
8192
0
4096
-4096
8192
0
4096
-4096
8192
0
4096
-4096
8192
0
4096
-4096
8192
0
4096
-4096
8192
0
4096
-4096
8192
0
4096
-4096
8192
0
4096
-4096
8192
0
4096
-4096
8192
0
4096
-4096
8192
0
4096
-4096
8192
0
4096
-4096
8192
0
4096
-4096
8192
0
4096
-4096
8192
0
4096
-4096
8192
0
4096
-4096
8192
0
4096
-4096
8192
0
4096
-4096
8192
0
4096
-4096
8192
0
4096
-4096
8192
0
4096
-4096
8192
0
4096
-4096
8192
0
4096
-4096
8192
0
4096
-4096
8192
0
4096
-4096
8192
0
4096
-4096
8192
0
4096
-4096
8192
0
4096
-4096
8192
0
4096
-4096
8192
0
4096
-4096
8192
0
4096
-4096
8192
0
4096
-4096
8192
0
4096
-4096
8192
0
4096
-4096
8192
0
4096
-4096
8192
0
4096
-4096
8192
0
4096
-4096
8192
0
4096
-4096
8192
0
4096
-4096
8192
0
4096
-4096
8192
0
4096
-4096
8192
0
4096
-4096
8192
0
4096
-4096
8192
0
4096
-4096
8192
0
4096
-4096
8192
0
4096
-4096
8192
0
4096
-4096
8192
0
4096
-4096
8192
0
4096
-4096
8192
0
4096
-4096
8192
0
4096
-4096
8192
0
4096
-4096
8192
0
4096
-4096
8192
0
4096
-4096
8192
0
4096
-4096
8192
0
4096
-4096
8192
0
4096
-4096
8192
0
4096
-4096
8192
0
4096
-4096
8192
0
4096
-4096
8192
0
4096
-4096
8192
0
4096
-4096
8192
0
4096
-4096
8192
0
4096
-4096
8192
0
4096
-4096
8192
0
4096
-4096
8192
0
4096
-4096
8192
0
4096
-4096
8192
0
4096
-4096
8192
0
4096
-4096
8192
0
4096
-4096
8192
0
4096
-4096
8192
0
4096
-4096
8192
0
4096
-4096
8192
0
4096
-4096
8192
0
4096
-4096
8192
0
4096
-4096
8192
0
4096
-4096
8192
0
4096
-4096
8192
0
4096
-4096
8192
0
4096
-4096
8192
0
4096
-4096
8192
0
4096
-4096
8192
0
4096
-4096
8192
0
4096
-4096
8192
0
4096
-4096
8192
0
4096
-4096
8192
0
4096
-4096
8192
0
4096
-4096
8192
0
4096
-4096
8192
0
4096
-4096
8192
0
4096
-4096
8192
0
4096
-4096
8192
0
4096
-4096
8192
0
4096
-4096
8192
0
4096
-4096
8192
0
4096
-4096
8192
0
4096
-4096
8192
0
4096
-4096
8192
0
4096
-4096
8192
0
4096
-4096
8192
0
4096
-4096
8192
0
4096
-4096
8192
0
4096
-4096
8192
0
4096
-4096
8192
0
4096
-4096
8192
0
4096
-4096
8192
0
4096
-4096
8192
0
4096
-4096
8192
0
4096
-4096
8192
0
4096
-4096
8192
0
4096
-4096
8192
0
4096
-4096
8192
0
4096
-4096
8192
0
4096
-4096
8192
0
4096
-4096
8192
0
4096
-4096
8192
0
4096
-4096
8192
0
4096
-4096
8192
0
4096
-4096
8192
0
4096
-4096
8192
0
4096
-4096
8192
0
4096
-4096
8192
0
4096
-4096
8192
0
4096
-4096
8192
0
4096
-4096
8192
0
4096
-4096
8192
0
4096
-4096
8192
0
4096
-4096
8192
0
4096
-4096
8192
0
4096
-4096
8192
0
4096
-4096
8192
0
4096
-4096
8192
0
4096
-4096
8192
0
4096
-4096
8192
0
4096
-4096
8192
0
4096
-4096
8192
0
4096
-4096
8192
0
4096
-4096
8192
0
4096
-4096
8192
0
4096
-4096
8192
0
4096
-4096
8192
0
4096
-4096
8192
0
4096
-4096
8192
0
4096
-4096
8192
0
4096
-4096
8192
0
4096
-4096
8192
0
4096
-4096
8192
0
4096
-4096
8192
0
4096
-4096
8192
0
4096
-4096
8192
0
4096
-4096
8192
0
4096
-4096
8192
0
4096
-4096
8192
0
4096
-4096
8192
0
4096
-4096
8192
0
4096
-4096
8192
0
4096
-4096
8192
0
4096
-4096
8192
0
4096
-4096
8192
0
4096
-4096
8192
0
4096
-4096
8192
0
4096
-4096
8192
0
4096
-4096
8192
0
4096
-4096
8192
0
4096
-4096
8192
0
4096
-4096
8192
0
4096
-4096
8192
0
4096
-4096
8192
0
4096
-4096
8192
0
4096
-4096
8192
0
4096
-4096
8192
0
4096
-4096
8192
0
4096
-4096
8192
0
4096
-4096
8192
0
4096
-4096
8192
0
4096
-4096
8192
0
4096
-4096
8192
0
4096
-4096
8192
0
4096
-4096
8192
0
4096
-4096
8192
0
4096
-4096
8192
0
4096
-4096
8192
0
4096
-4096
8192
0
4096
-4096
8192
0
4096
-4096
8192
0
4096
-4096
8192
0
4096
-4096
8192
0
4096
-4096
8192
0
4096
-4096
8192
0
4096
-4096
8192
0
4096
-4096
8192
0
4096
-4096
8192
0
4096
-4096
8192
0
4096
-4096
8192
0
4096
-4096
8192
0
4096
-4096
8192
0
4096
-4096
8192
0
4096
-4096
8192
0
4096
-4096
8192
0
4096
-4096
8192
0
4096
-4096
8192
0
4096
-4096
8192
0
4096
-4096
8192
0
4096
-4096
8192
0
4096
-4096
8192
0
4096
-4096
8192
0
4096
-4096
8192
0
4096
-4096
8192
0
4096
-4096
8192
0
4096
-4096
8192
0
4096
-4096
8192
0
4096
-4096
8192
0
4096
-4096
8192
0
4096
-4096
8192
0
4096
-4096
8192
0
4096
-4096
8192
0
4096
-4096
8192
0
4096
-4096
8192
0
4096
-4096
8192
0
4096
-4096
8192
0
4096
-4096
8192
0
4096
-4096
8192
0
4096
-4096
8192
0
4096
-4096
8192
0
4096
-4096
8192
0
4096
-4096
8192
0
4096
-4096
8192
0
4096
-4096
8192
0
4096
-4096
8192
0
4096
-4096
8192
0
4096
-4096
8192
0
4096
-4096
8192
0
4096
-4096
8192
0
4096
-4096
8192
0
4096
-4096
8192
0
4096
-4096
8192
0
4096
-4096
8192
0
4096
-4096
8192
0
4096
-4096
8192
0
4096
-4096
8192
0
4096
-4096
8192
0
4096
-4096
8192
0
4096
-4096
8192
0
4096
-4096
8192
0
4096
-4096
8192
0
4096
-4096
8192
0
4096
-4096
8192
0
4096
-4096
8192
0
4096
-4096
8192
0
4096
-4096
8192
0
4096
-4096
8192
0
4096
-4096
8192
0
4096
-4096
8192
0
4096
-4096
8192
0
4096
-4096
8192
0
4096
-4096
8192
0
4096
-4096
8192
0
4096
-4096
8192
0
4096
-4096
8192
0
4096
-4096
8192
0
4096
-4096
8192
0
4096
-4096
8192
0
4096
-4096
8192
0
4096
-4096
8192
0
4096
-4096
8192
0
4096
-4096
8192
0
4096
-4096
8192
0
4096
-4096
8192
0
4096
-4096
8192
0
4096
-4096
8192
0
4096
-4096
8192
0
4096
-4096
8192
0
4096
-4096
8192
0
4096
-4096
8192
0
4096
-4096
8192
0
4096
-4096
8192
0
4096
-4096
8192
0
4096
-4096
8192
0
4096
-4096
8192
0
4096
-4096
8192
0
4096
-4096
8192
0
4096
-4096
8192
0
4096
-4096
8192
0
4096
-4096
8192
0
4096
-4096
8192
0
4096
-4096
8192
0
4096
-4096
8192
0
4096
-4096
8192
0
4096
-4096
8192
0
4096
-4096
8192
0
4096
-4096
8192
0
4096
-4096
8192
0
4096
-4096
8192
0
4096
-4096
8192
0
4096
-4096
8192
0
4096
-4096
8192
0
4096
-4096
8192
0
4096
-4096
8192
0
4096
-4096
8192
0
4096
-4096
8192
0
4096
-4096
8192
0
4096
-4096
8192
0
4096
-4096
8192
0
4096
-4096
8192
0
4096
-4096
8192
0
4096
-4096
8192
0
4096
-4096
8192
0
4096
-4096
8192
0
4096
-4096
8192
0
4096
-4096
8192
0
4096
-4096
8192
0
4096
-4096
8192
0
4096
-4096
8192
0
4096
-4096
8192
0
4096
-4096
8192
0
4096
-4096
8192
0
4096
-4096
8192
0
4096
-4096
8192
0
4096
-4096
8192
0
4096
-4096
8192
0
4096
-4096
8192
0
4096
-4096
8192
0
4096
-4096
8192
0
4096
-4096
8192
0
4096
-4096
8192
0
4096
-4096
8192
0
4096
-4096
8192
0
4096
-4096
8192
0
4096
-4096
8192
0
4096
-4096
8192
0
4096
-4096
8192
0
4096
-4096
8192
0
4096
-4096
8192
0
4096
-4096
8192
0
4096
-4096
8192
0
4096
-4096
8192
0
4096
-4096
8192
0
4096
-4096
8192
0
4096
-4096
8192
0
4096
-4096
8192
0
4096
-4096
8192
0
4096
-4096
8192
0
4096
-4096
8192
0
4096
-4096
8192
0
4096
-4096
8192
0
4096
-4096
8192
0
4096
-4096
8192
0
4096
-4096
8192
0
4096
-4096
8192
0
4096
-4096
8192
0
4096
-4096
8192
0
4096
-4096
8192
0
4096
-4096
8192
0
4096
-4096
8192
0
4096
-4096
8192
0
4096
-4096
8192
0
4096
-4096
8192
0
4096
-4096
8192
0
4096
-4096
8192
0
4096
-4096
8192
0
4096
-4096
8192
0
4096
-4096
8192
0
4096
-4096
8192
0
4096
-4096
8192
0
4096
-4096
8192
0
4096
-4096
8192
0
4096
-4096
8192
0
4096
-4096
8192
0
4096
-4096
8192
0
4096
-4096
8192
0
4096
-4096
8192
0
4096
-4096
8192
0
4096
-4096
8192
0
4096
-4096
8192
0
4096
-4096
8192
0
4096
-4096
8192
0
4096
-4096
8192
0
4096
-4096
8192
0
4096
-4096
8192
0
4096
-4096
8192
0
4096
-4096
8192
0
4096
-4096
8192
0
4096
-4096
8192
0
4096
-4096
8192
0
4096
-4096
8192
0
4096
-4096
8192
0
4096
-4096
8192
0
4096
-4096
8192
0
4096
-4096
8192
0
4096
-4096
8192
0
4096
-4096
8192
0
4096
-4096
8192
0
4096
-4096
8192
0
4096
-4096
8192
0
4096
-4096
8192
0
4096
-4096
8192
0
4096
-4096
8192
0
4096
-4096
8192
0
4096
-4096
8192
0
4096
-4096
8192
0
4096
-4096
8192
0
4096
-4096
8192
0
4096
-4096
8192
0
4096
-4096
8192
0
4096
-4096
8192
0
4096
-4096
8192
0
4096
-4096
8192
0
4096
-4096
8192
0
4096
-4096
8192
0
4096
-4096
8192
0
4096
-4096
8192
0
4096
-4096
8192
0
4096
-4096
8192
0
4096
-4096
8192
0
4096
-4096
8192
0
4096
-4096
8192
0
4096
-4096
8192
0
4096
-4096
8192
0
4096
-4096
8192
0
4096
-4096
8192
0
4096
-4096
8192
0
4096
-4096
8192
0
4096
-4096
8192
0
4096
-4096
8192
0
4096
-4096
8192
0
4096
-4096
8192
0
4096
-4096
8192
0
4096
-4096
8192
0
4096
-4096
8192
0
4096
-4096
8192
0
4096
-4096
8192
0
4096
-4096
8192
0
4096
-4096
8192
0
4096
-4096
8192
0
4096
-4096
8192
0
4096
-4096
8192
0
4096
-4096
8192
0
4096
-4096
8192
0
4096
-4096
8192
0
4096
-4096
8192
0
4096
-4096
8192
0
4096
-4096
8192
0
4096
-4096
8192
0
4096
-4096
8192
0
4096
-4096
8192
0
4096
-4096
8192
0
4096
-4096
8192
0
4096
-4096
8192
0
4096
-4096
8192
0
4096
-4096
8192
0
4096
-4096
8192
0
4096
-4096
8192
0
4096
-4096
8192
0
4096
-4096
8192
0
4096
-4096
8192
0
4096
-4096
8192
0
4096
-4096
8192
0
4096
-4096
8192
0
4096
-4096
8192
0
4096
-4096
8192
0
4096
-4096
8192
0
4096
-4096
8192
0
4096
-4096
8192
0
4096
-4096
8192
0
4096
-4096
8192
0
4096
-4096
8192
0
4096
-4096
8192
0
4096
-4096
8192
0
4096
-4096
8192
0
4096
-4096
8192
0
4096
-4096
8192
0
4096
-4096
8192
0
4096
-4096
8192
0
4096
-4096
8192
0
4096
-4096
8192
0
4096
-4096
8192
0
4096
-4096
8192
0
4096
-4096
8192
0
4096
-4096
8192
0
4096
-4096
8192
0
4096
-4096
8192
0
4096
-4096
8192
0
4096
-4096
8192
0
4096
-4096
8192
0
4096
-4096
8192
0
4096
-4096
8192
0
4096
-4096
8192
0
4096
-4096
8192
0
4096
-4096
8192
0
4096
-4096
8192
0
4096
-4096
8192
0
4096
-4096
8192
0
4096
-4096
8192
0
4096
-4096
8192
0
4096
-4096
8192
0
4096
-4096
8192
0
4096
-4096
8192
0
4096
-4096
8192
0
4096
-4096
8192
0
4096
-4096
8192
0
4096
-4096
8192
0
4096
-4096
8192
0
4096
-4096
8192
0
4096
-4096
8192
0
4096
-4096
8192
0
4096
-4096
8192
0
4096
-4096
8192
0
4096
-4096
8192
0
4096
-4096
8192
0
4096
-4096
8192
0
4096
-4096
8192
0
4096
-4096
8192
0
4096
-4096
8192
0
4096
-4096
8192
0
4096
-4096
8192
0
4096
-4096
8192
0
4096
-4096
8192
0
4096
-4096
8192
0
4096
-4096
8192
0
4096
-4096
8192
0
4096
-4096
8192
0
4096
-4096
8192
0
4096
-4096
8192
0
4096
-4096
8192
0
4096
-4096
8192
0
4096
-4096
8192
0
4096
-4096
8192
0
4096
-4096
8192
0
4096
-4096
8192
0
4096
-4096
8192
0
4096
-4096
8192
0
4096
-4096
8192
0
4096
-4096
8192
0
4096
-4096
8192
0
4096
-4096
8192
0
4096
-4096
8192
0
4096
-4096
8192
0
4096
-4096
8192
0
4096
-4096
8192
0
4096
-4096
8192
0
4096
-4096
8192
0
4096
-4096
8192
0
4096
-4096
8192
0
4096
-4096
8192
0
4096
-4096
8192
0
4096
-4096
8192
0
4096
-4096
8192
0
4096
-4096
8192
0
4096
-4096
8192
0
4096
-4096
8192
0
4096
-4096
8192
0
4096
-4096
8192
0
4096
-4096
8192
0
4096
-4096
8192
0
4096
-4096
8192
0
4096
-4096
8192
0
4096
-4096
8192
0
4096
-4096
8192
0
4096
-4096
8192
0
4096
-4096
8192
0
4096
-4096
8192
0
4096
-4096
8192
0
4096
-4096
8192
0
4096
-4096
8192
0
4096
-4096
8192
0
4096
-4096
8192
0
4096
-4096
8192
0
4096
-4096
8192
0
4096
-4096
8192
0
4096
-4096
8192
0
4096
-4096
8192
0
4096
-4096
8192
0
4096
-4096
8192
0
4096
-4096
8192
0
4096
-4096
8192
0
4096
-4096
8192
0
4096
-4096
8192
0
4096
-4096
8192
0
4096
-4096
8192
0
4096
-4096
8192
0
4096
-4096
8192
0
4096
-4096
8192
0
4096
-4096
8192
0
4096
-4096
8192
0
4096
-4096
8192
0
4096
-4096
8192
0
4096
-4096
8192
0
4096
-4096
8192
0
4096
-4096
8192
0
4096
-4096
8192
0
4096
-4096
8192
0
4096
-4096
8192
0
4096
-4096
8192
0
4096
-4096
8192
0
4096
-4096
8192
0
4096
-4096
8192
0
4096
-4096
8192
0
4096
-4096
8192
0
4096
-4096
8192
0
4096
-4096
8192
0
4096
-4096
8192
0
4096
-4096
8192
0
4096
-4096
8192
0
4096
-4096
8192
0
4096
-4096
8192
0
4096
-4096
8192
0
4096
-4096
8192
0
4096
-4096
8192
0
4096
-4096
8192
0
4096
-4096
8192
0
4096
-4096
8192
0
4096
-4096
8192
0
4096
-4096
8192
0
4096
-4096
8192
0
4096
-4096
8192
0
4096
-4096
8192
0
4096
-4096
8192
0
4096
-4096
8192
0
4096
-4096
8192
0
4096
-4096
8192
0
4096
-4096
8192
0
4096
-4096
8192
0
4096
-4096
8192
0
4096
-4096
8192
0
4096
-4096
8192
0
4096
-4096
8192
0
4096
-4096
8192
0
4096
-4096
8192
0
4096
-4096
8192
0
4096
-4096
8192
0
4096
-4096
8192
0
4096
-4096
8192
0
4096
-4096
8192
0
4096
-4096
8192
0
4096
-4096
8192
0
4096
-4096
8192
0
4096
-4096
8192
0
4096
-4096
8192
0
4096
-4096
8192
0
4096
-4096
8192
0
4096
-4096
8192
0
4096
-4096
8192
0
4096
-4096
8192
0
4096
-4096
8192
0
4096
-4096
8192
0
4096
-4096
8192
0
4096
-4096
8192
0
4096
-4096
8192
0
4096
-4096
8192
0
4096
-4096
8192
0
4096
-4096
8192
0
4096
-4096
8192
0
4096
-4096
8192
0
4096
-4096
8192
0
4096
-4096
8192
0
4096
-4096
8192
0
4096
-4096
8192
0
4096
-4096
8192
0
4096
-4096
8192
0
4096
-4096
8192
0
4096
-4096
8192
0
4096
-4096
8192
0
4096
-4096
8192
0
4096
-4096
8192
0
4096
-4096
8192
0
4096
-4096
8192
0
4096
-4096
8192
0
4096
-4096
8192
0
4096
-4096
8192
0
4096
-4096
8192
0
4096
-4096
8192
0
4096
-4096
8192
0
4096
-4096
8192
0
4096
-4096
8192
0
4096
-4096
8192
0
4096
-4096
8192
0
4096
-4096
8192
0
4096
-4096
8192
0
4096
-4096
8192
0
4096
-4096
8192
0
4096
-4096
8192
0
4096
-4096
8192
0
4096
-4096
8192
0
4096
-4096
8192
0
4096
-4096
8192
0
4096
-4096
8192
0
4096
-4096
8192
0
4096
-4096
8192
0
4096
-4096
8192
0
4096
-4096
8192
0
4096
-4096
8192
0
4096
-4096
8192
0
4096
-4096
8192
0
4096
-4096
8192
0
4096
-4096
8192
0
4096
-4096
8192
0
4096
-4096
8192
0
4096
-4096
8192
0
4096
-4096
8192
0
4096
-4096
8192
0
4096
-4096
8192
0
4096
-4096
8192
0
4096
-4096
8192
0
4096
-4096
8192
0
4096
-4096
8192
0
4096
-4096
8192
0
4096
-4096
8192
0
4096
-4096
8192
0
4096
-4096
8192
0
4096
-4096
8192
0
4096
-4096
8192
0
4096
-4096
8192
0
4096
-4096
8192
0
4096
-4096
8192
0
4096
-4096
8192
0
4096
-4096
8192
0
4096
-4096
8192
0
4096
-4096
8192
0
4096
-4096
8192
0
4096
-4096
8192
0
4096
-4096
8192
0
4096
-4096
8192
0
4096
-4096
8192
0
4096
-4096
8192
0
4096
-4096
8192
0
4096
-4096
8192
0
4096
-4096
8192
0
4096
-4096
8192
0
4096
-4096
8192
0
4096
-4096
8192
0
4096
-4096
8192
0
4096
-4096
8192
0
4096
-4096
8192
0
4096
-4096
8192
0
4096
-4096
8192
0
4096
-4096
8192
0
4096
-4096
8192
0
4096
-4096
8192
0
4096
-4096
8192
0
4096
-4096
8192
0
4096
-4096
8192
0
4096
-4096
8192
0
4096
-4096
8192
0
4096
-4096
8192
0
4096
-4096
8192
0
4096
-4096
8192
0
4096
-4096
8192
0
4096
-4096
8192
0
4096
-4096
8192
0
4096
-4096
8192
0
4096
-4096
8192
0
4096
-4096
8192
0
4096
-4096
8192
0
4096
-4096
8192
0
4096
-4096
8192
0
4096
-4096
8192
0
4096
-4096
8192
0
4096
-4096
8192
0
4096
-4096
8192
0
4096
-4096
8192
0
4096
-4096
8192
0
4096
-4096
8192
0
4096
-4096
8192
0
4096
-4096
8192
0
4096
-4096
8192
0
4096
-4096
8192
0
4096
-4096
8192
0
4096
-4096
8192
0
4096
-4096
8192
0
4096
-4096
8192
0
4096
-4096
8192
0
4096
-4096
8192
0
4096
-4096
8192
0
4096
-4096
8192
0
4096
-4096
8192
0
4096
-4096
8192
0
4096
-4096
8192
0
4096
-4096
8192
0
4096
-4096
8192
0
4096
-4096
8192
0
4096
-4096
8192
0
4096
-4096
8192
0
4096
-4096
8192
0
4096
-4096
8192
0
4096
-4096
8192
0
4096
-4096
8192
0
4096
-4096
8192
0
4096
-4096
8192
0
4096
-4096
8192
0
4096
-4096
8192
0
4096
-4096
8192
0
4096
-4096
8192
0
4096
-4096
8192
0
4096
-4096
8192
0
4096
-4096
8192
0
4096
-4096
8192
0
4096
-4096
8192
0
4096
-4096
8192
0
4096
-4096
8192
0
4096
-4096
8192
0
4096
-4096
8192
0
4096
-4096
8192
0
4096
-4096
8192
0
4096
-4096
8192
0
4096
-4096
8192
0
4096
-4096
8192
0
4096
-4096
8192
0
4096
-4096
8192
0
4096
-4096
8192
0
4096
-4096
8192
0
4096
-4096
8192
0
4096
-4096
8192
0
4096
-4096
8192
0
4096
-4096
8192
0
4096
-4096
8192
0
4096
-4096
8192
0
4096
-4096
8192
0
4096
-4096
8192
0
4096
-4096
8192
0
4096
-4096
8192
0
4096
-4096
8192
0
4096
-4096
8192
0
4096
-4096
8192
0
4096
-4096
8192
0
4096
-4096
8192
0
4096
-4096
8192
0
4096
-4096
8192
0
4096
-4096
8192
0
4096
-4096
8192
0
4096
-4096
8192
0
4096
-4096
8192
0
4096
-4096
8192
0
4096
-4096
8192
0
4096
-4096
8192
0
4096
-4096
8192
0
4096
-4096
8192
0
4096
-4096
8192
0
4096
-4096
8192
0
4096
-4096
8192
0
4096
-4096
8192
0
4096
-4096
8192
0
4096
-4096
8192
0
4096
-4096
8192
0
4096
-4096
8192
0
4096
-4096
8192
0
4096
-4096
8192
0
4096
-4096
8192
0
4096
-4096
8192
0
4096
-4096
8192
0
4096
-4096
8192
0
4096
-4096
8192
0
4096
-4096
8192
0
4096
-4096
8192
0
4096
-4096
8192
0
4096
-4096
8192
0
4096
-4096
8192
0
4096
-4096
8192
0
4096
-4096
8192
0
4096
-4096
8192
0
4096
-4096
8192
0
4096
-4096
8192
0
4096
-4096
8192
0
4096
-4096
8192
0
4096
-4096
8192
0
4096
-4096
8192
0
4096
-4096
8192
0
4096
-4096
8192
0
4096
-4096
8192
0
4096
-4096
8192
0
4096
-4096
8192
0
4096
-4096
8192
0
4096
-4096
8192
0
4096
-4096
8192
0
4096
-4096
8192
0
4096
-4096
8192
0
4096
-4096
8192
0
4096
-4096
8192
0
4096
-4096
8192
0
4096
-4096
8192
0
4096
-4096
8192
0
4096
-4096
8192
0
4096
-4096
8192
0
4096
-4096
8192
0
4096
-4096
8192
0
4096
-4096
8192
0
4096
-4096
8192
0
4096
-4096
8192
0
4096
-4096
8192
0
4096
-4096
8192
0
4096
-4096
8192
0
4096
-4096
8192
0
4096
-4096
8192
0
4096
-4096
8192
0
4096
-4096
8192
0
4096
-4096
8192
0
4096
-4096
8192
0
4096
-4096
8192
0
4096
-4096
8192
0
4096
-4096
8192
0
4096
-4096
8192
0
4096
-4096
8192
0
4096
-4096
8192
0
4096
-4096
8192
0
4096
-4096
8192
0
4096
-4096
8192
0
4096
-4096
8192
0
4096
-4096
8192
0
4096
-4096
8192
0
4096
-4096
8192
0
4096
-4096
8192
0
4096
-4096
8192
0
4096
-4096
8192
0
4096
-4096
8192
0
4096
-4096
8192
0
4096
-4096
8192
0
4096
-4096
8192
0
4096
-4096
8192
0
4096
-4096
8192
0
4096
-4096
8192
0
4096
-4096
8192
0
4096
-4096
8192
0
4096
-4096
8192
0
4096
-4096
8192
0
4096
-4096
8192
0
4096
-4096
8192
0
4096
-4096
8192
0
4096
-4096
8192
0
4096
-4096
8192
0
4096
-4096
8192
0
4096
-4096
8192
0
4096
-4096
8192
0
4096
-4096
8192
0
4096
-4096
8192
0
4096
-4096
8192
0
4096
-4096
8192
0
4096
-4096
8192
0
4096
-4096
8192
0
4096
-4096
8192
0
4096
-4096
8192
0
4096
-4096
8192
0
4096
-4096
8192
0
4096
-4096
8192
0
4096
-4096
8192
0
4096
-4096
8192
0
4096
-4096
8192
0
4096
-4096
8192
0
4096
-4096
8192
0
4096
-4096
8192
0
4096
-4096
8192
0
4096
-4096
8192
0
4096
-4096
8192
0
4096
-4096
8192
0
4096
-4096
8192
0
4096
-4096
8192
0
4096
-4096
8192
0
4096
-4096
8192
0
4096
-4096
8192
0
4096
-4096
8192
0
4096
-4096
8192
0
4096
-4096
8192
0
4096
-4096
8192
0
4096
-4096
8192
0
4096
-4096
8192
0
4096
-4096
8192
0
4096
-4096
8192
0
4096
-4096
8192
0
4096
-4096
8192
0
4096
-4096
8192
0
4096
-4096
8192
0
4096
-4096
8192
0
4096
-4096
8192
0
4096
-4096
8192
0
4096
-4096
8192
0
4096
-4096
8192
0
4096
-4096
8192
0
4096
-4096
8192
0
4096
-4096
8192
0
4096
-4096
8192
0
4096
-4096
8192
0
4096
-4096
8192
0
4096
-4096
8192
0
4096
-4096
8192
0
4096
-4096
8192
0
4096
-4096
8192
0
4096
-4096
8192
0
4096
-4096
8192
0
4096
-4096
8192
0
4096
-4096
8192
0
4096
-4096
8192
0
4096
-4096
8192
0
4096
-4096
8192
0
4096
-4096
8192
0
4096
-4096
8192
0
4096
-4096
8192
0
4096
-4096
8192
0
4096
-4096
8192
0
4096
-4096
8192
0
4096
-4096
8192
0
4096
-4096
8192
0
4096
-4096
8192
0
4096
-4096
8192
0
4096
-4096
8192
0
4096
-4096
8192
0
4096
-4096
8192
0
4096
-4096
8192
0
4096
-4096
8192
0
4096
-4096
8192
0
4096
-4096
8192
0
4096
-4096
8192
0
4096
-4096
8192
0
4096
-4096
8192
0
4096
-4096
8192
0
4096
-4096
8192
0
4096
-4096
8192
0
4096
-4096
8192
0
4096
-4096
8192
0
4096
-4096
8192
0
4096
-4096
8192
0
4096
-4096
8192
0
4096
-4096
8192
0
4096
-4096
8192
0
4096
-4096
8192
0
4096
-4096
8192
0
4096
-4096
8192
0
4096
-4096
8192
0
4096
-4096
8192
0
4096
-4096
8192
0
4096
-4096
8192
0
4096
-4096
8192
0
4096
-4096
8192
0
4096
-4096
8192
0
4096
-4096
8192
0
4096
-4096
8192
0
4096
-4096
8192
0
4096
-4096
8192
0
4096
-4096
8192
0
4096
-4096
8192
0
4096
-4096
8192
0
4096
-4096
8192
0
4096
-4096
8192
0
4096
-4096
8192
0
4096
-4096
8192
0
4096
-4096
8192
0
4096
-4096
8192
0
4096
-4096
8192
0
4096
-4096
8192
0
4096
-4096
8192
0
4096
-4096
8192
0
4096
-4096
8192
0
4096
-4096
8192
0
4096
-4096
8192
0
4096
-4096
8192
0
4096
-4096
8192
0
4096
-4096
8192
0
4096
-4096
8192
0
4096
-4096
8192
0
4096
-4096
8192
0
4096
-4096
8192
0
4096
-4096
8192
0
4096
-4096
8192
0
4096
-4096
8192
0
4096
-4096
8192
0
4096
-4096
8192
0
4096
-4096
8192
0
4096
-4096
8192
0
4096
-4096
8192
0
4096
-4096
8192
0
4096
-4096
8192
0
4096
-4096
8192
0
4096
-4096
8192
0
4096
-4096
8192
0
4096
-4096
8192
0
4096
-4096
8192
0
4096
-4096
8192
0
4096
-4096
8192
0
4096
-4096
8192
0
4096
-4096
8192
0
4096
-4096
8192
0
4096
-4096
8192
0
4096
-4096
8192
0
4096
-4096
8192
0
4096
-4096
8192
0
4096
-4096
8192
0
4096
-4096
8192
0
4096
-4096
8192
0
4096
-4096
8192
0
4096
-4096
8192
0
4096
-4096
8192
0
4096
-4096
8192
0
4096
-4096
8192
0
4096
-4096
8192
0
4096
-4096
8192
0
4096
-4096
8192
0
4096
-4096
8192
0
4096
-4096
8192
0
4096
-4096
8192
0
4096
-4096
8192
0
4096
-4096
8192
0
4096
-4096
8192
0
4096
-4096
8192
0
4096
-4096
8192
0
4096
-4096
8192
0
4096
-4096
8192
0
4096
-4096
8192
0
4096
-4096
8192
0
4096
-4096
8192
0
4096
-4096
8192
0
4096
-4096
8192
0
4096
-4096
8192
0
4096
-4096
8192
0
4096
-4096
8192
0
4096
-4096
8192
0
4096
-4096
8192
0
4096
-4096
8192
0
4096
-4096
8192
0
4096
-4096
8192
0
4096
-4096
8192
0
4096
-4096
8192
0
4096
-4096
8192
0
4096
-4096
8192
0
4096
-4096
8192
0
4096
-4096
8192
0
4096
-4096
8192
0
4096
-4096
8192
0
4096
-4096
8192
0
4096
-4096
8192
0
4096
-4096
8192
0
4096
-4096
8192
0
4096
-4096
8192
0
4096
-4096
8192
0
4096
-4096
8192
0
4096
-4096
8192
0
4096
-4096
8192
0
4096
-4096
8192
0
4096
-4096
8192
0
4096
-4096
8192
0
4096
-4096
8192
0
4096
-4096
8192
0
4096
-4096
8192
0
4096
-4096
8192
0
4096
-4096
8192
0
4096
-4096
8192
0
4096
-4096
8192
0
4096
-4096
8192
0
4096
-4096
8192
0
4096
-4096
8192
0
4096
-4096
8192
0
4096
-4096
8192
0
4096
-4096
8192
0
4096
-4096
8192
0
4096
-4096
8192
0
4096
-4096
8192
0
4096
-4096
8192
0
4096
-4096
8192
0
4096
-4096
8192
0
4096
-4096
8192
0
4096
-4096
8192
0
4096
-4096
8192
0
4096
-4096
8192
0
4096
-4096
8192
0
4096
-4096
8192
0
4096
-4096
8192
0
4096
-4096
8192
0
4096
-4096
8192
0
4096
-4096
8192
0
4096
-4096
8192
0
4096
-4096
8192
0
4096
-4096
8192
0
4096
-4096
8192
0
4096
-4096
8192
0
4096
-4096
8192
0
4096
-4096
8192
0
4096
-4096
8192
0
4096
-4096
8192
0
4096
-4096
8192
0
4096
-4096
8192
0
4096
-4096
8192
0
4096
-4096
8192
0
4096
-4096
8192
0
4096
-4096
8192
0
4096
-4096
8192
0
4096
-4096
8192
0
4096
-4096
8192
0
4096
-4096
8192
0
4096
-4096
8192
0
4096
-4096
8192
0
4096
-4096
8192
0
4096
-4096
8192
0
4096
-4096
8192
0
4096
-4096
8192
0
4096
-4096
8192
0
4096
-4096
8192
0
4096
-4096
8192
0
4096
-4096
8192
0
4096
-4096
8192
0
4096
-4096
8192
0
4096
-4096
8192
0
4096
-4096
8192
0
4096
-4096
8192
0
4096
-4096
8192
0
4096
-4096
8192
0
4096
-4096
8192
0
4096
-4096
8192
0
4096
-4096
8192
0
4096
-4096
8192
0
4096
-4096
8192
0
4096
-4096
8192
0
4096
-4096
8192
0
4096
-4096
8192
0
4096
-4096
8192
0
4096
-4096
8192
0
4096
-4096
8192
0
4096
-4096
8192
0
4096
-4096
8192
0
4096
-4096
8192
0
4096
-4096
8192
0
4096
-4096
8192
0
4096
-4096
8192
0
4096
-4096
8192
0
4096
-4096
8192
0
4096
-4096
8192
0
4096
-4096
8192
0
4096
-4096
8192
0
4096
-4096
8192
0
4096
-4096
8192
0
4096
-4096
8192
0
4096
-4096
8192
0
4096
-4096
8192
0
4096
-4096
8192
0
4096
-4096
8192
0
4096
-4096
8192
0
4096
-4096
8192
0
4096
-4096
8192
0
4096
-4096
8192
0
4096
-4096
8192
0
4096
-4096
8192
0
4096
-4096
8192
0
4096
-4096
8192
0
4096
-4096
8192
0
4096
-4096
8192
0
4096
-4096
8192
0
4096
-4096
8192
0
4096
-4096
8192
0
4096
-4096
8192
0
4096
-4096
8192
0
4096
-4096
8192
0
4096
-4096
8192
0
4096
-4096
8192
0
4096
-4096
8192
0
4096
-4096
8192
0
4096
-4096
8192
0
4096
-4096
8192
0
4096
-4096
8192
0
4096
-4096
8192
0
4096
-4096
8192
0
4096
-4096
8192
0
4096
-4096
8192
0
4096
-4096
8192
0
4096
-4096
8192
0
4096
-4096
8192
0
4096
-4096
8192
0
4096
-4096
8192
0
4096
-4096
8192
0
4096
-4096
8192
0
4096
-4096
8192
0
4096
-4096
8192
0
4096
-4096
8192
0
4096
-4096
8192
0
4096
-4096
8192
0
4096
-4096
8192
0
4096
-4096
8192
0
4096
-4096
8192
0
4096
-4096
8192
0
4096
-4096
8192
0
4096
-4096
8192
0
4096
-4096
8192
0
4096
-4096
8192
0
4096
-4096
8192
0
4096
-4096
8192
0
4096
-4096
8192
0
4096
-4096
8192
0
4096
-4096
8192
0
4096
-4096
8192
0
4096
-4096
8192
0
4096
-4096
8192
0
4096
-4096
8192
0
4096
-4096
8192
0
4096
-4096
8192
0
4096
-4096
8192
0
4096
-4096
8192
0
4096
-4096
8192
0
4096
-4096
8192
0
4096
-4096
8192
0
4096
-4096
8192
0
4096
-4096
8192
0
4096
-4096
8192
0
4096
-4096
8192
0
4096
-4096
8192
0
4096
-4096
8192
0
4096
-4096
8192
0
4096
-4096
8192
0
4096
-4096
8192
0
4096
-4096
8192
0
4096
-4096
8192
0
4096
-4096
8192
0
4096
-4096
8192
0
4096
-4096
8192
0
4096
-4096
8192
0
4096
-4096
8192
0
4096
-4096
8192
0
4096
-4096
8192
0
4096
-4096
8192
0
4096
-4096
8192
0
4096
-4096
8192
0
4096
-4096
8192
0
4096
-4096
8192
0
4096
-4096
8192
0
4096
-4096
8192
0
4096
-4096
8192
0
4096
-4096
8192
0
4096
-4096
8192
0
4096
-4096
8192
0
4096
-4096
8192
0
4096
-4096
8192
0
4096
-4096
8192
0
4096
-4096
8192
0
4096
-4096
8192
0
4096
-4096
8192
0
4096
-4096
8192
0
4096
-4096
8192
0
4096
-4096
8192
0
4096
-4096
8192
0
4096
-4096
8192
0
4096
-4096
8192
0
4096
-4096
8192
0
4096
-4096
8192
0
4096
-4096
8192
0
4096
-4096
8192
0
4096
-4096
8192
0
4096
-4096
8192
0
4096
-4096
8192
0
4096
-4096
8192
0
4096
-4096
8192
0
4096
-4096
8192
0
4096
-4096
8192
0
4096
-4096
8192
0
4096
-4096
8192
0
4096
-4096
8192
0
4096
-4096
8192
0
4096
-4096
8192
0
4096
-4096
8192
0
4096
-4096
8192
0
4096
-4096
8192
0
4096
-4096
8192
0
4096
-4096
8192
0
4096
-4096
8192
0
4096
-4096
8192
0
4096
-4096
8192
0
4096
-4096
8192
0
4096
-4096
8192
0
4096
-4096
8192
0
4096
-4096
8192
0
4096
-4096
8192
0
4096
-4096
8192
0
4096
-4096
8192
0
4096
-4096
8192
0
4096
-4096
8192
0
4096
-4096
8192
0
4096
-4096
8192
0
4096
-4096
8192
0
4096
-4096
8192
0
4096
-4096
8192
0
4096
-4096
8192
0
4096
-4096
8192
0
4096
-4096
8192
0
4096
-4096
8192
0
4096
-4096
8192
0
4096
-4096
8192
0
4096
-4096
8192
0
4096
-4096
8192
0
4096
-4096
8192
0
4096
-4096
8192
0
4096
-4096
8192
0
4096
-4096
8192
0
4096
-4096
8192
0
4096
-4096
8192
0
4096
-4096
8192
0
4096
-4096
8192
0
4096
-4096
8192
0
4096
-4096
8192
0
4096
-4096
8192
0
4096
-4096
8192
0
4096
-4096
8192
0
4096
-4096
8192
0
4096
-4096
8192
0
4096
-4096
8192
0
4096
-4096
8192
0
4096
-4096
8192
0
4096
-4096
8192
0
4096
-4096
8192
0
4096
-4096
8192
0
4096
-4096
8192
0
4096
-4096
8192
0
4096
-4096
8192
0
4096
-4096
8192
0
4096
-4096
8192
0
4096
-4096
8192
0
4096
-4096
8192
0
4096
-4096
8192
0
4096
-4096
8192
0
4096
-4096
8192
0
4096
-4096
8192
0
4096
-4096
8192
0
4096
-4096
8192
0
4096
-4096
8192
0
4096
-4096
8192
0
4096
-4096
8192
0
4096
-4096
8192
0
4096
-4096
8192
0
4096
-4096
8192
0
4096
-4096
8192
0
4096
-4096
8192
0
4096
-4096
8192
0
4096
-4096
8192
0
4096
-4096
8192
0
4096
-4096
8192
0
4096
-4096
8192
0
4096
-4096
8192
0
4096
-4096
8192
0
4096
-4096
8192
0
4096
-4096
8192
0
4096
-4096
8192
0
4096
-4096
8192
0
4096
-4096
8192
0
4096
-4096
8192
0
4096
-4096
8192
0
4096
-4096
8192
0
4096
-4096
8192
0
4096
-4096
8192
0
4096
-4096
8192
0
4096
-4096
8192
0
4096
-4096
8192
0
4096
-4096
8192
0
4096
-4096
8192
0
4096
-4096
8192
0
4096
-4096
8192
0
4096
-4096
8192
0
4096
-4096
8192
0
4096
-4096
8192
0
4096
-4096
8192
0
4096
-4096
8192
0
4096
-4096
8192
0
4096
-4096
8192
0
4096
-4096
8192
0
4096
-4096
8192
0
4096
-4096
8192
0
4096
-4096
8192
0
4096
-4096
8192
0
4096
-4096
8192
0
4096
-4096
8192
0
4096
-4096
8192
0
4096
-4096
8192
0
4096
-4096
8192
0
4096
-4096
8192
0
4096
-4096
8192
0
4096
-4096
8192
0
4096
-4096
8192
0
4096
-4096
8192
0
4096
-4096
8192
0
4096
-4096
8192
0
4096
-4096
8192
0
4096
-4096
8192
0
4096
-4096
8192
0
4096
-4096
8192
0
4096
-4096
8192
0
4096
-4096
8192
0
4096
-4096
8192
0
4096
-4096
8192
0
4096
-4096
8192
0
4096
-4096
8192
0
4096
-4096
8192
0
4096
-4096
8192
0
4096
-4096
8192
0
4096
-4096
8192
0
4096
-4096
8192
0
4096
-4096
8192
0
4096
-4096
8192
0
4096
-4096
8192
0
4096
-4096
8192
0
4096
-4096
8192
0
4096
-4096
8192
0
4096
-4096
8192
0
4096
-4096
8192
0
4096
-4096
8192
0
4096
-4096
8192
0
4096
-4096
8192
0
4096
-4096
8192
0
4096
-4096
8192
0
4096
-4096
8192
0
4096
-4096
8192
0
4096
-4096
8192
0
4096
-4096
8192
0
4096
-4096
8192
0
4096
-4096
8192
0
4096
-4096
8192
0
4096
-4096
8192
0
4096
-4096
8192
0
4096
-4096
8192
0
4096
-4096
8192
0
4096
-4096
8192
0
4096
-4096
8192
0
4096
-4096
8192
0
4096
-4096
8192
0
4096
-4096
8192
0
4096
-4096
8192
0
4096
-4096
8192
0
4096
-4096
8192
0
4096
-4096
8192
0
4096
-4096
8192
0
4096
-4096
8192
0
4096
-4096
8192
0
4096
-4096
8192
0
4096
-4096
8192
0
4096
-4096
8192
0
4096
-4096
8192
0
4096
-4096
8192
0
4096
-4096
8192
0
4096
-4096
8192
0
4096
-4096
8192
0
4096
-4096
8192
0
4096
-4096
8192
0
4096
-4096
8192
0
4096
-4096
8192
0
4096
-4096
8192
0
4096
-4096
8192
0
4096
-4096
8192
0
4096
-4096
8192
0
4096
-4096
8192
0
4096
-4096
8192
0
4096
-4096
8192
0
4096
-4096
8192
0
4096
-4096
8192
0
4096
-4096
8192
0
4096
-4096
8192
0
4096
-4096
8192
0
4096
-4096
8192
0
4096
-4096
8192
0
4096
-4096
8192
0
4096
-4096
8192
0
4096
-4096
8192
0
4096
-4096
8192
0
4096
-4096
8192
0
4096
-4096
8192
0
4096
-4096
8192
0
4096
-4096
8192
0
4096
-4096
8192
0
4096
-4096
8192
0
4096
-4096
8192
0
4096
-4096
8192
0
4096
-4096
8192
0
4096
-4096
8192
0
4096
-4096
8192
0
4096
-4096
8192
0
4096
-4096
8192
0
4096
-4096
8192
0
4096
-4096
8192
0
4096
-4096
8192
0
4096
-4096
8192
0
4096
-4096
8192
0
4096
-4096
8192
0
4096
-4096
8192
0
4096
-4096
8192
0
4096
-4096
8192
0
4096
-4096
8192
0
4096
-4096
8192
0
4096
-4096
8192
0
4096
-4096
8192
0
4096
-4096
8192
0
4096
-4096
8192
0
4096
-4096
8192
0
4096
-4096
8192
0
4096
-4096
8192
0
4096
-4096
8192
0
4096
-4096
8192
0
4096
-4096
8192
0
4096
-4096
8192
0
4096
-4096
8192
0
4096
-4096
8192
0
4096
-4096
8192
0
4096
-4096
8192
0
4096
-4096
8192
0
4096
-4096
8192
0
4096
-4096
8192
0
4096
-4096
8192
0
4096
-4096
8192
0
4096
-4096
8192
0
4096
-4096
8192
0
4096
-4096
8192
0
4096
-4096
8192
0
4096
-4096
8192
0
4096
-4096
8192
0
4096
-4096
8192
0
4096
-4096
8192
0
4096
-4096
8192
0
4096
-4096
8192
0
4096
-4096
8192
0
4096
-4096
8192
0
4096
-4096
8192
0
4096
-4096
8192
0
4096
-4096
8192
0
4096
-4096
8192
0
4096
-4096
8192
0
4096
-4096
8192
0
4096
-4096
8192
0
4096
-4096
8192
0
4096
-4096
8192
0
4096
-4096
8192
0
4096
-4096
8192
0
4096
-4096
8192
0
4096
-4096
8192
0
4096
-4096
8192
0
4096
-4096
8192
0
4096
-4096
8192
0
4096
-4096
8192
0
4096
-4096
8192
0
4096
-4096
8192
0
4096
-4096
8192
0
4096
-4096
8192
0
4096
-4096
8192
0
4096
-4096
8192
0
4096
-4096
8192
0
4096
-4096
8192
0
4096
-4096
8192
0
4096
-4096
8192
0
4096
-4096
8192
0
4096
-4096
8192
0
4096
-4096
8192
0
4096
-4096
8192
0
4096
-4096
8192
0
4096
-4096
8192
0
4096
-4096
8192
0
4096
-4096
8192
0
4096
-4096
8192
0
4096
-4096
8192
0
4096
-4096
8192
0
4096
-4096
8192
0
4096
-4096
8192
0
4096
-4096
8192
0
4096
-4096
8192
0
4096
-4096
8192
0
4096
-4096
8192
0
4096
-4096
8192
0
4096
-4096
8192
0
4096
-4096
8192
0
4096
-4096
8192
0
4096
-4096
8192
0
4096
-4096
8192
0
4096
-4096
8192
0
4096
-4096
8192
0
4096
-4096
8192
0
4096
-4096
8192
0
4096
-4096
8192
0
4096
-4096
8192
0
4096
-4096
8192
0
4096
-4096
8192
0
4096
-4096
8192
0
4096
-4096
8192
0
4096
-4096
8192
0
4096
-4096
8192
0
4096
-4096
8192
0
4096
-4096
8192
0
4096
-4096
8192
0
4096
-4096
8192
0
4096
-4096
8192
0
4096
-4096
8192
0
4096
-4096
8192
0
4096
-4096
8192
0
4096
-4096
8192
0
4096
-4096
8192
0
4096
-4096
8192
0
4096
-4096
8192
0
4096
-4096
8192
0
4096
-4096
8192
0
4096
-4096
8192
0
4096
-4096
8192
0
4096
-4096
8192
0
4096
-4096
8192
0
4096
-4096
8192
0
4096
-4096
8192
0
4096
-4096
8192
0
4096
-4096
8192
0
4096
-4096
8192
0
4096
-4096
8192
0
4096
-4096
8192
0
4096
-4096
8192
0
4096
-4096
8192
0
4096
-4096
8192
0
4096
-4096
8192
0
4096
-4096
8192
0
4096
-4096
8192
0
4096
-4096
8192
0
4096
-4096
8192
0
4096
-4096
8192
0
4096
-4096
8192
0
4096
-4096
8192
0
4096
-4096
8192
0
4096
-4096
8192
0
4096
-4096
8192
0
4096
-4096
8192
0
4096
-4096
8192
0
4096
-4096
8192
0
4096
-4096
8192
0
4096
-4096
8192
0
4096
-4096
8192
0
4096
-4096
8192
0
4096
-4096
8192
0
4096
-4096
8192
0
4096
-4096
8192
0
4096
-4096
8192
0
4096
-4096
8192
0
4096
-4096
8192
0
4096
-4096
8192
0
4096
-4096
8192
0
4096
-4096
8192
0
4096
-4096
8192
0
4096
-4096
8192
0
4096
-4096
8192
0
4096
-4096
8192
0
4096
-4096
8192
0
4096
-4096
8192
0
4096
-4096
8192
0
4096
-4096
8192
0
4096
-4096
8192
0
4096
-4096
8192
0
4096
-4096
8192
0
4096
-4096
8192
0
4096
-4096
8192
0
4096
-4096
8192
0
4096
-4096
8192
0
4096
-4096
8192
0
4096
-4096
8192
0
4096
-4096
8192
0
4096
-4096
8192
0
4096
-4096
8192
0
4096
-4096
8192
0
4096
-4096
8192
0
4096
-4096
8192
0
4096
-4096
8192
0
4096
-4096
8192
0
4096
-4096
8192
0
4096
-4096
8192
0
4096
-4096
8192
0
4096
-4096
8192
0
4096
-4096
8192
0
4096
-4096
8192
0
4096
-4096
8192
0
4096
-4096
8192
0
4096
-4096
8192
0
4096
-4096
8192
0
4096
-4096
8192
0
4096
-4096
8192
0
4096
-4096
8192
0
4096
-4096
8192
0
4096
-4096
8192
0
4096
-4096
8192
0
4096
-4096
8192
0
4096
-4096
8192
0
4096
-4096
8192
0
4096
-4096
8192
0
4096
-4096
8192
0
4096
-4096
8192
0
4096
-4096
8192
0
4096
-4096
8192
0
4096
-4096
8192
0
4096
-4096
8192
0
4096
-4096
8192
0
4096
-4096
8192
0
4096
-4096
8192
0
4096
-4096
8192
0
4096
-4096
8192
0
4096
-4096
8192
0
4096
-4096
8192
0
4096
-4096
8192
0
4096
-4096
8192
0
4096
-4096
8192
0
4096
-4096
8192
0
4096
-4096
8192
0
4096
-4096
8192
0
4096
-4096
8192
0
4096
-4096
8192
0
4096
-4096
8192
0
4096
-4096
8192
0
4096
-4096
8192
0
4096
-4096
8192
0
4096
-4096
8192
0
4096
-4096
8192
0
4096
-4096
8192
0
4096
-4096
8192
0
4096
-4096
8192
0
4096
-4096
8192
0
4096
-4096
8192
0
4096
-4096
8192
0
4096
-4096
8192
0
4096
-4096
8192
0
4096
-4096
8192
0
4096
-4096
8192
0
4096
-4096
8192
0
4096
-4096
8192
0
4096
-4096
8192
0
4096
-4096
8192
0
4096
-4096
8192
0
4096
-4096
8192
0
4096
-4096
8192
0
4096
-4096
8192
0
4096
-4096
8192
0
4096
-4096
8192
0
4096
-4096
8192
0
4096
-4096
8192
0
4096
-4096
8192
0
4096
-4096
8192
0
4096
-4096
8192
0
4096
-4096
8192
0
4096
-4096
8192
0
4096
-4096
8192
0
4096
-4096
8192
0
4096
-4096
8192
0
4096
-4096
8192
0
4096
-4096
8192
0
4096
-4096
8192
0
4096
-4096
8192
0
4096
-4096
8192
0
4096
-4096
8192
0
4096
-4096
8192
0
4096
-4096
8192
0
4096
-4096
8192
0
4096
-4096
8192
0
4096
-4096
8192
0
4096
-4096
8192
0
4096
-4096
8192
0
4096
-4096
8192
0
4096
-4096
8192
0
4096
-4096
8192
0
4096
-4096
8192
0
4096
-4096
8192
0
4096
-4096
8192
0
4096
-4096
8192
0
4096
-4096
8192
0
4096
-4096
8192
0
4096
-4096
8192
0
4096
-4096
8192
0
4096
-4096
8192
0
4096
-4096
8192
0
4096
-4096
8192
0
4096
-4096
8192
0
4096
-4096
8192
0
4096
-4096
8192
0
4096
-4096
8192
0
4096
-4096
8192
0
4096
-4096
8192
0
4096
-4096
8192
0
4096
-4096
8192
0
4096
-4096
8192
0
4096
-4096
8192
0
4096
-4096
8192
0
4096
-4096
8192
0
4096
-4096
8192
0
4096
-4096
8192
0
4096
-4096
8192
0
4096
-4096
8192
0
4096
-4096
8192
0
4096
-4096
8192
0
4096
-4096
8192
0
4096
-4096
8192
0
4096
-4096
8192
0
4096
-4096
8192
0
4096
-4096
8192
0
4096
-4096
8192
0
4096
-4096
8192
0
4096
-4096
8192
0
4096
-4096
8192
0
4096
-4096
8192
0
4096
-4096
8192
0
4096
-4096
8192
0
4096
-4096
8192
0
4096
-4096
8192
0
4096
-4096
8192
0
4096
-4096
8192
0
4096
-4096
8192
0
4096
-4096
8192
0
4096
-4096
8192
0
4096
-4096
8192
0
4096
-4096
8192
0
4096
-4096
8192
0
4096
-4096
8192
0
4096
-4096
8192
0
4096
-4096
8192
0
4096
-4096
8192
0
4096
-4096
8192
0
4096
-4096
8192
0
4096
-4096
8192
0
4096
-4096
8192
0
4096
-4096
8192
0
4096
-4096
8192
0
4096
-4096
8192
0
4096
-4096
8192
0
4096
-4096
8192
0
4096
-4096
8192
0
4096
-4096
8192
0
4096
-4096
8192
0
4096
-4096
8192
0
4096
-4096
8192
0
4096
-4096
8192
0
4096
-4096
8192
0
4096
-4096
8192
0
4096
-4096
8192
0
4096
-4096
8192
0
4096
-4096
8192
0
4096
-4096
8192
0
4096
-4096
8192
0
4096
-4096
8192
0
4096
-4096
8192
0
4096
-4096
8192
0
4096
-4096
8192
0
4096
-4096
8192
0
4096
-4096
8192
0
4096
-4096
8192
0
4096
-4096
8192
0
4096
-4096
8192
0
4096
-4096
8192
0
4096
-4096
8192
0
4096
-4096
8192
0
4096
-4096
8192
0
4096
-4096
8192
0
4096
-4096
8192
0
4096
-4096
8192
0
4096
-4096
8192
0
4096
-4096
8192
0
4096
-4096
8192
0
4096
-4096
8192
0
4096
-4096
8192
0
4096
-4096
8192
0
4096
-4096
8192
0
4096
-4096
8192
0
4096
-4096
8192
0
4096
-4096
8192
0
4096
-4096
8192
0
4096
-4096
8192
0
4096
-4096
8192
0
4096
-4096
8192
0
4096
-4096
8192
0
4096
-4096
8192
0
4096
-4096
8192
0
4096
-4096
8192
0
4096
-4096
8192
0
4096
-4096
8192
0
4096
-4096
8192
0
4096
-4096
8192
0
4096
-4096
8192
0
4096
-4096
8192
0
4096
-4096
8192
0
4096
-4096
8192
0
4096
-4096
8192
0
4096
-4096
8192
0
4096
-4096
8192
0
4096
-4096
8192
0
4096
-4096
8192
0
4096
-4096
8192
0
4096
-4096
8192
0
4096
-4096
8192
0
4096
-4096
8192
0
4096
-4096
8192
0
4096
-4096
8192
0
4096
-4096
8192
0
4096
-4096
8192
0
4096
-4096
8192
0
4096
-4096
8192
0
4096
-4096
8192
0
4096
-4096
8192
0
4096
-4096
8192
0
4096
-4096
8192
0
4096
-4096
8192
0
4096
-4096
8192
0
4096
-4096
8192
0
4096
-4096
8192
0
4096
-4096
8192
0
4096
-4096
8192
0
4096
-4096
8192
0
4096
-4096
8192
0
4096
-4096
8192
0
4096
-4096
8192
0
4096
-4096
8192
0
4096
-4096
8192
0
4096
-4096
8192
0
4096
-4096
8192
0
4096
-4096
8192
0
4096
-4096
8192
0
4096
-4096
8192
0
4096
-4096
8192
0
4096
-4096
8192
0
4096
-4096
8192
0
4096
-4096
8192
0
4096
-4096
8192
0
4096
-4096
8192
0
4096
-4096
8192
0
4096
-4096
8192
0
4096
-4096
8192
0
4096
-4096
8192
0
4096
-4096
8192
0
4096
-4096
8192
0
4096
-4096
8192
0
4096
-4096
8192
0
4096
-4096
8192
0
4096
-4096
8192
0
4096
-4096
8192
0
4096
-4096
8192
0
4096
-4096
8192
0
4096
-4096
8192
0
4096
-4096
8192
0
4096
-4096
8192
0
4096
-4096
8192
0
4096
-4096
8192
0
4096
-4096
8192
0
4096
-4096
8192
0
4096
-4096
8192
0
4096
-4096
8192
0
4096
-4096
8192
0
4096
-4096
8192
0
4096
-4096
8192
0
4096
-4096
8192
0
4096
-4096
8192
0
4096
-4096
8192
0
4096
-4096
8192
0
4096
-4096
8192
0
4096
-4096
8192
0
4096
-4096
8192
0
4096
-4096
8192
0
4096
-4096
8192
0
4096
-4096
8192
0
4096
-4096
8192
0
4096
-4096
8192
0
4096
-4096
8192
0
4096
-4096
8192
0
4096
-4096
8192
0
4096
-4096
8192
0
4096
-4096
8192
0
4096
-4096
8192
0
4096
-4096
8192
0
4096
-4096
8192
0
4096
-4096
8192
0
4096
-4096
8192
0
4096
-4096
8192
0
4096
-4096
8192
0
4096
-4096
8192
0
4096
-4096
8192
0
4096
-4096
8192
0
4096
-4096
8192
0
4096
-4096
8192
0
4096
-4096
8192
0
4096
-4096
8192
0
4096
-4096
8192
0
4096
-4096
8192
0
4096
-4096
8192
0
4096
-4096
8192
0
4096
-4096
8192
0
4096
-4096
8192
0
4096
-4096
8192
0
4096
-4096
8192
0
4096
-4096
8192
0
4096
-4096
8192
0
4096
-4096
8192
0
4096
-4096
8192
0
4096
-4096
8192
0
4096
-4096
8192
0
4096
-4096
8192
0
4096
-4096
8192
0
4096
-4096
8192
0
4096
-4096
8192
0
4096
-4096
8192
0
4096
-4096
8192
0
4096
-4096
8192
0
4096
-4096
8192
0
4096
-4096
8192
0
4096
-4096
8192
0
4096
-4096
8192
0
4096
-4096
8192
0
4096
-4096
8192
0
4096
-4096
8192
0
4096
-4096
8192
0
4096
-4096
8192
0
4096
-4096
8192
0
4096
-4096
8192
0
4096
-4096
8192
0
4096
-4096
8192
0
4096
-4096
8192
0
4096
-4096
8192
0
4096
-4096
8192
0
4096
-4096
8192
0
4096
-4096
8192
0
4096
-4096
8192
0
4096
-4096
8192
0
4096
-4096
8192
0
4096
-4096
8192
0
4096
-4096
8192
0
4096
-4096
8192
0
4096
-4096
8192
0
4096
-4096
8192
0
4096
-4096
8192
0
4096
-4096
8192
0
4096
-4096
8192
0
4096
-4096
8192
0
4096
-4096
8192
0
4096
-4096
8192
0
4096
-4096
8192
0
4096
-4096
8192
0
4096
-4096
8192
0
4096
-4096
8192
0
4096
-4096
8192
0
4096
-4096
8192
0
4096
-4096
8192
0
4096
-4096
8192
0
4096
-4096
8192
0
4096
-4096
8192
0
4096
-4096
8192
0
4096
-4096
8192
0
4096
-4096
8192
0
4096
-4096
8192
0
4096
-4096
8192
0
4096
-4096
8192
0
4096
-4096
8192
0
4096
-4096
8192
0
4096
-4096
8192
0
4096
-4096
8192
0
4096
-4096
8192
0
4096
-4096
8192
0
4096
-4096
8192
0
4096
-4096
8192
0
4096
-4096
8192
0
4096
-4096
8192
0
4096
-4096
8192
0
4096
-4096
8192
0
4096
-4096
8192
0
4096
-4096
8192
0
4096
-4096
8192
0
4096
-4096
8192
0
4096
-4096
8192
0
4096
-4096
8192
0
4096
-4096
8192
0
4096
-4096
8192
0
4096
-4096
8192
0
4096
-4096
8192
0
4096
-4096
8192
0
4096
-4096
8192
0
4096
-4096
8192
0
4096
-4096
8192
0
4096
-4096
8192
0
4096
-4096
8192
0
4096
-4096
8192
0
4096
-4096
8192
0
4096
-4096
8192
0
4096
-4096
8192
0
4096
-4096
8192
0
4096
-4096
8192
0
4096
-4096
8192
0
4096
-4096
8192
0
4096
-4096
8192
0
4096
-4096
8192
0
4096
-4096
8192
0
4096
-4096
8192
0
4096
-4096
8192
0
4096
-4096
8192
0
4096
-4096
8192
0
4096
-4096
8192
0
4096
-4096
8192
0
4096
-4096
8192
0
4096
-4096
8192
0
4096
-4096
8192
0
4096
-4096
8192
0
4096
-4096
8192
0
4096
-4096
8192
0
4096
-4096
8192
0
4096
-4096
8192
0
4096
-4096
8192
0
4096
-4096
8192
0
4096
-4096
8192
0
4096
-4096
8192
0
4096
-4096
8192
0
4096
-4096
8192
0
4096
-4096
8192
0
4096
-4096
8192
0
4096
-4096
8192
0
4096
-4096
8192
0
4096
-4096
8192
0
4096
-4096
8192
0
4096
-4096
8192
0
4096
-4096
8192
0
4096
-4096
8192
0
4096
-4096
8192
0
4096
-4096
8192
0
4096
-4096
8192
0
4096
-4096
8192
0
4096
-4096
8192
0
4096
-4096
8192
0
4096
-4096
8192
0
4096
-4096
8192
0
4096
-4096
8192
0
4096
-4096
8192
0
4096
-4096
8192
0
4096
-4096
8192
0
4096
-4096
8192
0
4096
-4096
8192
0
4096
-4096
8192
0
4096
-4096
8192
0
4096
-4096
8192
0
4096
-4096
8192
0
4096
-4096
8192
0
4096
-4096
8192
0
4096
-4096
8192
0
4096
-4096
8192
0
4096
-4096
8192
0
4096
-4096
8192
0
4096
-4096
8192
0
4096
-4096
8192
0
4096
-4096
8192
0
4096
-4096
8192
0
4096
-4096
8192
0
4096
-4096
8192
0
4096
-4096
8192
0
4096
-4096
8192
0
4096
-4096
8192
0
4096
-4096
8192
0
4096
-4096
8192
0
4096
-4096
8192
0
4096
-4096
8192
0
4096
-4096
8192
0
4096
-4096
8192
0
4096
-4096
8192
0
4096
-4096
8192
0
4096
-4096
8192
0
4096
-4096
8192
0
4096
-4096
8192
0
4096
-4096
8192
0
4096
-4096
8192
0
4096
-4096
8192
0
4096
-4096
8192
0
4096
-4096
8192
0
4096
-4096
8192
0
4096
-4096
8192
0
4096
-4096
8192
0
4096
-4096
8192
0
4096
-4096
8192
0
4096
-4096
8192
0
4096
-4096
8192
0
4096
-4096
8192
0
4096
-4096
8192
0
4096
-4096
8192
0
4096
-4096
8192
0
4096
-4096
8192
0
4096
-4096
8192
0
4096
-4096
8192
0
4096
-4096
8192
0
4096
-4096
8192
0
4096
-4096
8192
0
4096
-4096
8192
0
4096
-4096
8192
0
4096
-4096
8192
0
4096
-4096
8192
0
4096
-4096
8192
0
4096
-4096
8192
0
4096
-4096
8192
0
4096
-4096
8192
0
4096
-4096
8192
0
4096
-4096
8192
0
4096
-4096
8192
0
4096
-4096
8192
0
4096
-4096
8192
0
4096
-4096
8192
0
4096
-4096
8192
0
4096
-4096
8192
0
4096
-4096
8192
0
4096
-4096
8192
0
4096
-4096
8192
0
4096
-4096
8192
0
4096
-4096
8192
0
4096
-4096
8192
0
4096
-4096
8192
0
4096
-4096
8192
0
4096
-4096
8192
0
4096
-4096
8192
0
4096
-4096
8192
0
4096
-4096
8192
0
4096
-4096
8192
0
4096
-4096
8192
0
4096
-4096
8192
0
4096
-4096
8192
0
4096
-4096
8192
0
4096
-4096
8192
0
4096
-4096
8192
0
4096
-4096
8192
0
4096
-4096
8192
0
4096
-4096
8192
0
4096
-4096
8192
0
4096
-4096
8192
0
4096
-4096
8192
0
4096
-4096
8192
0
4096
-4096
8192
0
4096
-4096
8192
0
4096
-4096
8192
0
4096
-4096
8192
0
4096
-4096
8192
0
4096
-4096
8192
0
4096
-4096
8192
0
4096
-4096
8192
0
4096
-4096
8192
0
4096
-4096
8192
0
4096
-4096
8192
0
4096
-4096
8192
0
4096
-4096
8192
0
4096
-4096
8192
0
4096
-4096
8192
0
4096
-4096
8192
0
4096
-4096
8192
0
4096
-4096
8192
0
4096
-4096
8192
0
4096
-4096
8192
0
4096
-4096
8192
0
4096
-4096
8192
0
4096
-4096
8192
0
4096
-4096
8192
0
4096
-4096
8192
0
4096
-4096
8192
0
4096
-4096
8192
0
4096
-4096
8192
0
4096
-4096
8192
0
4096
-4096
8192
0
4096
-4096
8192
0
4096
-4096
8192
0
4096
-4096
8192
0
4096
-4096
8192
0
4096
-4096
8192
0
4096
-4096
8192
0
4096
-4096
8192
0
4096
-4096
8192
0
4096
-4096
8192
0
4096
-4096
8192
0
4096
-4096
8192
0
4096
-4096
8192
0
4096
-4096
8192
0
4096
-4096
8192
0
4096
-4096
8192
0
4096
-4096
8192
0
4096
-4096
8192
0
4096
-4096
8192
0
4096
-4096
8192
0
4096
-4096
8192
0
4096
-4096
8192
0
4096
-4096
8192
0
4096
-4096
8192
0
4096
-4096
8192
0
4096
-4096
8192
0
4096
-4096
8192
0
4096
-4096
8192
0
4096
-4096
8192
0
4096
-4096
8192
0
4096
-4096
8192
0
4096
-4096
8192
0
4096
-4096
8192
0
4096
-4096
8192
0
4096
-4096
8192
0
4096
-4096
8192
0
4096
-4096
8192
0
4096
-4096
8192
0
4096
-4096
8192
0
4096
-4096
8192
0
4096
-4096
8192
0
4096
-4096
8192
0
4096
-4096
8192
0
4096
-4096
8192
0
4096
-4096
8192
0
4096
-4096
8192
0
4096
-4096
8192
0
4096
-4096
8192
0
4096
-4096
8192
0
4096
-4096
8192
0
4096
-4096
8192
0
4096
-4096
8192
0
4096
-4096
8192
0
4096
-4096
8192
0
4096
-4096
8192
0
4096
-4096
8192
0
4096
-4096
8192
0
4096
-4096
8192
0
4096
-4096
8192
0
4096
-4096
8192
0
4096
-4096
8192
0
4096
-4096
8192
0
4096
-4096
8192
0
4096
-4096
8192
0
4096
-4096
8192
0
4096
-4096
8192
0
4096
-4096
8192
0
4096
-4096
8192
0
4096
-4096
8192
0
4096
-4096
8192
0
4096
-4096
8192
0
4096
-4096
8192
0
4096
-4096
8192
0
4096
-4096
8192
0
4096
-4096
8192
0
4096
-4096
8192
0
4096
-4096
8192
0
4096
-4096
8192
0
4096
-4096
8192
0
4096
-4096
8192
0
4096
-4096
8192
0
4096
-4096
8192
0
4096
-4096
8192
0
4096
-4096
8192
0
4096
-4096
8192
0
4096
-4096
8192
0
4096
-4096
8192
0
4096
-4096
8192
0
4096
-4096
8192
0
4096
-4096
8192
0
4096
-4096
8192
0
4096
-4096
8192
0
4096
-4096
8192
0
4096
-4096
8192
0
4096
-4096
8192
0
4096
-4096
8192
0
4096
-4096
8192
0
4096
-4096
8192
0
4096
-4096
8192
0
4096
-4096
8192
0
4096
-4096
8192
0
4096
-4096
8192
0
4096
-4096
8192
0
4096
-4096
8192
0
4096
-4096
8192
0
4096
-4096
8192
0
4096
-4096
8192
0
4096
-4096
8192
0
4096
-4096
8192
0
4096
-4096
8192
0
4096
-4096
8192
0
4096
-4096
8192
0
4096
-4096
8192
0
4096
-4096
8192
0
4096
-4096
8192
0
4096
-4096
8192
0
4096
-4096
8192
0
4096
-4096
8192
0
4096
-4096
8192
0
4096
-4096
8192
0
4096
-4096
8192
0
4096
-4096
8192
0
4096
-4096
8192
0
4096
-4096
8192
0
4096
-4096
8192
0
4096
-4096
8192
0
4096
-4096
8192
0
4096
-4096
8192
0
4096
-4096
8192
0
4096
-4096
8192
0
4096
-4096
8192
0
4096
-4096
8192
0
4096
-4096
8192
0
4096
-4096
8192
0
4096
-4096
8192
0
4096
-4096
8192
0
4096
-4096
8192
0
4096
-4096
8192
0
4096
-4096
8192
0
4096
-4096
8192
0
4096
-4096
8192
0
4096
-4096
8192
0
4096
-4096
8192
0
4096
-4096
8192
0
4096
-4096
8192
0
4096
-4096
8192
0
4096
-4096
8192
0
4096
-4096
8192
0
4096
-4096
8192
0
4096
-4096
8192
0
4096
-4096
8192
0
4096
-4096
8192
0
4096
-4096
8192
0
4096
-4096
8192
0
4096
-4096
8192
0
4096
-4096
8192
0
4096
-4096
8192
0
4096
-4096
8192
0
4096
-4096
8192
0
4096
-4096
8192
0
4096
-4096
8192
0
4096
-4096
8192
0
4096
-4096
8192
0
4096
-4096
8192
0
4096
-4096
8192
0
4096
-4096
8192
0
4096
-4096
8192
0
4096
-4096
8192
0
4096
-4096
8192
0
4096
-4096
8192
0
4096
-4096
8192
0
4096
-4096
8192
0
4096
-4096
8192
0
4096
-4096
8192
0
4096
-4096
8192
0
4096
-4096
8192
0
4096
-4096
8192
0
4096
-4096
8192
0
4096
-4096
8192
0
4096
-4096
8192
0
4096
-4096
8192
0
4096
-4096
8192
0
4096
-4096
8192
0
4096
-4096
8192
0
4096
-4096
8192
0
4096
-4096
8192
0
4096
-4096
8192
0
4096
-4096
8192
0
4096
-4096
8192
0
4096
-4096
8192
0
4096
-4096
8192
0
4096
-4096
8192
0
4096
-4096
8192
0
4096
-4096
8192
0
4096
-4096
8192
0
4096
-4096
8192
0
4096
-4096
8192
0
4096
-4096
8192
0
4096
-4096
8192
0
4096
-4096
8192
0
4096
-4096
8192
0
4096
-4096
8192
0
4096
-4096
8192
0
4096
-4096
8192
0
4096
-4096
8192
0
4096
-4096
8192
0
4096
-4096
8192
0
4096
-4096
8192
0
4096
-4096
8192
0
4096
-4096
8192
0
4096
-4096
8192
0
4096
-4096
8192
0
4096
-4096
8192
0
4096
-4096
8192
0
4096
-4096
8192
0
4096
-4096
8192
0
4096
-4096
8192
0
4096
-4096
8192
0
4096
-4096
8192
0
4096
-4096
8192
0
4096
-4096
8192
0
4096
-4096
8192
0
4096
-4096
8192
0
4096
-4096
8192
0
4096
-4096
8192
0
4096
-4096
8192
0
4096
-4096
8192
0
4096
-4096
8192
0
4096
-4096
8192
0
4096
-4096
8192
0
4096
-4096
8192
0
4096
-4096
8192
0
4096
-4096
8192
0
4096
-4096
8192
0
4096
-4096
8192
0
4096
-4096
8192
0
4096
-4096
8192
0
4096
-4096
8192
0
4096
-4096
8192
0
4096
-4096
8192
0
4096
-4096
8192
0
4096
-4096
8192
0
4096
-4096
8192
0
4096
-4096
8192
0
4096
-4096
8192
0
4096
-4096
8192
0
4096
-4096
8192
0
4096
-4096
8192
0
4096
-4096
8192
0
4096
-4096
8192
0
4096
-4096
8192
0
4096
-4096
8192
0
4096
-4096
8192
0
4096
-4096
8192
0
4096
-4096
8192
0
4096
-4096
8192
0
4096
-4096
8192
0
4096
-4096
8192
0
4096
-4096
8192
0
4096
-4096
8192
0
4096
-4096
8192
0
4096
-4096
8192
0
4096
-4096
8192
0
4096
-4096
8192
0
4096
-4096
8192
0
4096
-4096
8192
0
4096
-4096
8192
0
4096
-4096
8192
0
4096
-4096
8192
0
4096
-4096
8192
0
4096
-4096
8192
0
4096
-4096
8192
0
4096
-4096
8192
0
4096
-4096
8192
0
4096
-4096
8192
0
4096
-4096
8192
0
4096
-4096
8192
0
4096
-4096
8192
0
4096
-4096
8192
0
4096
-4096
8192
0
4096
-4096
8192
0
4096
-4096
8192
0
4096
-4096
8192
0
4096
-4096
8192
0
4096
-4096
8192
0
4096
-4096
8192
0
4096
-4096
8192
0
4096
-4096
8192
0
4096
-4096
8192
0
4096
-4096
8192
0
4096
-4096
8192
0
4096
-4096
8192
0
4096
-4096
8192
0
4096
-4096
8192
0
4096
-4096
8192
0
4096
-4096
8192
0
4096
-4096
8192
0
4096
-4096
8192
0
4096
-4096
8192
0
4096
-4096
8192
0
4096
-4096
8192
0
4096
-4096
8192
0
4096
-4096
8192
0
4096
-4096
8192
0
4096
-4096
8192
0
4096
-4096
8192
0
4096
-4096
8192
0
4096
-4096
8192
0
4096
-4096
8192
0
4096
-4096
8192
0
4096
-4096
8192
0
4096
-4096
8192
0
4096
-4096
8192
0
4096
-4096
8192
0
4096
-4096
8192
0
4096
-4096
8192
0
4096
-4096
8192
0
4096
-4096
8192
0
4096
-4096
8192
0
4096
-4096
8192
0
4096
-4096
8192
0
4096
-4096
8192
0
4096
-4096
8192
0
4096
-4096
8192
0
4096
-4096
8192
0
4096
-4096
8192
0
4096
-4096
8192
0
4096
-4096
8192
0
4096
-4096
8192
0
4096
-4096
8192
0
4096
-4096
8192
0
4096
-4096
8192
0
4096
-4096
8192
0
4096
-4096
8192
0
4096
-4096
8192
0
4096
-4096
8192
0
4096
-4096
8192
0
4096
-4096
8192
0
4096
-4096
8192
0
4096
-4096
8192
0
4096
-4096
8192
0
4096
-4096
8192
0
4096
-4096
8192
0
4096
-4096
8192
0
4096
-4096
8192
0
4096
-4096
8192
0
4096
-4096
8192
0
4096
-4096
8192
0
4096
-4096
8192
0
4096
-4096
8192
0
4096
-4096
8192
0
4096
-4096
8192
0
4096
-4096
8192
0
4096
-4096
8192
0
4096
-4096
8192
0
4096
-4096
8192
0
4096
-4096
8192
0
4096
-4096
8192
0
4096
-4096
8192
0
4096
-4096
8192
0
4096
-4096
8192
0
4096
-4096
8192
0
4096
-4096
8192
0
4096
-4096
8192
0
4096
-4096
8192
0
4096
-4096
8192
0
4096
-4096
8192
0
4096
-4096
8192
0
4096
-4096
8192
0
4096
-4096
8192
0
4096
-4096
8192
0
4096
-4096
8192
0
4096
-4096
8192
0
4096
-4096
8192
0
4096
-4096
8192
0
4096
-4096
8192
0
4096
-4096
8192
0
4096
-4096
8192
0
4096
-4096
8192
0
4096
-4096
8192
0
4096
-4096
8192
0
4096
-4096
8192
0
4096
-4096
8192
0
4096
-4096
8192
0
4096
-4096
8192
0
4096
-4096
8192
0
4096
-4096
8192
0
4096
-4096
8192
0
4096
-4096
8192
0
4096
-4096
8192
0
4096
-4096
8192
0
4096
-4096
8192
0
4096
-4096
8192
0
4096
-4096
8192
0
4096
-4096
8192
0
4096
-4096
8192
0
4096
-4096
8192
0
4096
-4096
8192
0
4096
-4096
8192
0
4096
-4096
8192
0
4096
-4096
8192
0
4096
-4096
8192
0
4096
-4096
8192
0
4096
-4096
8192
0
4096
-4096
8192
0
4096
-4096
8192
0
4096
-4096
8192
0
4096
-4096
8192
0
4096
-4096
8192
0
4096
-4096
8192
0
4096
-4096
8192
0
4096
-4096
8192
0
4096
-4096
8192
0
4096
-4096
8192
0
4096
-4096
8192
0
4096
-4096
8192
0
4096
-4096
8192
0
4096
-4096
8192
0
4096
-4096
8192
0
4096
-4096
8192
0
4096
-4096
8192
0
4096
-4096
8192
0
4096
-4096
8192
0
4096
-4096
8192
0
4096
-4096
8192
0
4096
-4096
8192
0
4096
-4096
8192
0
4096
-4096
8192
0
4096
-4096
8192
0
4096
-4096
8192
0
4096
-4096
8192
0
4096
-4096
8192
0
4096
-4096
8192
0
4096
-4096
8192
0
4096
-4096
8192
0
4096
-4096
8192
0
4096
-4096
8192
0
4096
-4096
8192
0
4096
-4096
8192
0
4096
-4096
8192
0
4096
-4096
8192
0
4096
-4096
8192
0
4096
-4096
8192
0
4096
-4096
8192
0
4096
-4096
8192
0
4096
-4096
8192
0
4096
-4096
8192
0
4096
-4096
8192
0
4096
-4096
8192
0
4096
-4096
8192
0
4096
-4096
8192
0
4096
-4096
8192
0
4096
-4096
8192
0
4096
-4096
8192
0
4096
-4096
8192
0
4096
-4096
8192
0
4096
-4096
8192
0
4096
-4096
8192
0
4096
-4096
8192
0
4096
-4096
8192
0
4096
-4096
8192
0
4096
-4096
8192
0
4096
-4096
8192
0
4096
-4096
8192
0
4096
-4096
8192
0
4096
-4096
8192
0
4096
-4096
8192
0
4096
-4096
8192
0
4096
-4096
8192
0
4096
-4096
8192
0
4096
-4096
8192
0
4096
-4096
8192
0
4096
-4096
8192
0
4096
-4096
8192
0
4096
-4096
8192
0
4096
-4096
8192
0
4096
-4096
8192
0
4096
-4096
8192
0
4096
-4096
8192
0
4096
-4096
8192
0
4096
-4096
8192
0
4096
-4096
8192
0
4096
-4096
8192
0
4096
-4096
8192
0
4096
-4096
8192
0
4096
-4096
8192
0
4096
-4096
8192
0
4096
-4096
8192
0
4096
-4096
8192
0
4096
-4096
8192
0
4096
-4096
8192
0
4096
-4096
8192
0
4096
-4096
8192
0
4096
-4096
8192
0
4096
-4096
8192
0
4096
-4096
8192
0
4096
-4096
8192
0
4096
-4096
8192
0
4096
-4096
8192
0
4096
-4096
8192
0
4096
-4096
8192
0
4096
-4096
8192
0
4096
-4096
8192
0
4096
-4096
8192
0
4096
-4096
8192
0
4096
-4096
8192
0
4096
-4096
8192
0
4096
-4096
8192
0
4096
-4096
8192
0
4096
-4096
8192
0
4096
-4096
8192
0
4096
-4096
8192
0
4096
-4096
8192
0
4096
-4096
8192
0
4096
-4096
8192
0
4096
-4096
8192
0
4096
-4096
8192
0
4096
-4096
8192
0
4096
-4096
8192
0
4096
-4096
8192
0
4096
-4096
8192
0
4096
-4096
8192
0
4096
-4096
8192
0
4096
-4096
8192
0
4096
-4096
8192
0
4096
-4096
8192
0
4096
-4096
8192
0
4096
-4096
8192
0
4096
-4096
8192
0
4096
-4096
8192
0
4096
-4096
8192
0
4096
-4096
8192
0
4096
-4096
8192
0
4096
-4096
8192
0
4096
-4096
8192
0
4096
-4096
8192
0
4096
-4096
8192
0
4096
-4096
8192
0
4096
-4096
8192
0
4096
-4096
8192
0
4096
-4096
8192
0
4096
-4096
8192
0
4096
-4096
8192
0
4096
-4096
8192
0
4096
-4096
8192
0
4096
-4096
8192
0
4096
-4096
8192
0
4096
-4096
8192
0
4096
-4096
8192
0
4096
-4096
8192
0
4096
-4096
8192
0
4096
-4096
8192
0
4096
-4096
8192
0
4096
-4096
8192
0
4096
-4096
8192
0
4096
-4096
8192
0
4096
-4096
8192
0
4096
-4096
8192
0
4096
-4096
8192
0
4096
-4096
8192
0
4096
-4096
8192
0
4096
-4096
8192
0
4096
-4096
8192
0
4096
-4096
8192
0
4096
-4096
8192
0
4096
-4096
8192
0
4096
-4096
8192
0
4096
-4096
8192
0
4096
-4096
8192
0
4096
-4096
8192
0
4096
-4096
8192
0
4096
-4096
8192
0
4096
-4096
8192
0
4096
-4096
8192
0
4096
-4096
8192
0
4096
-4096
8192
0
4096
-4096
8192
0
4096
-4096
8192
0
4096
-4096
8192
0
4096
-4096
8192
0
4096
-4096
8192
0
4096
-4096
8192
0
4096
-4096
8192
0
4096
-4096
8192
0
4096
-4096
8192
0
4096
-4096
8192
0
4096
-4096
8192
0
4096
-4096
8192
0
4096
-4096
8192
0
4096
-4096
8192
0
4096
-4096
8192
0
4096
-4096
8192
0
4096
-4096
8192
0
4096
-4096
8192
0
4096
-4096
8192
0
4096
-4096
8192
0
4096
-4096
8192
0
4096
-4096
8192
0
4096
-4096
8192
0
4096
-4096
8192
0
4096
-4096
8192
0
4096
-4096
8192
0
4096
-4096
8192
0
4096
-4096
8192
0
4096
-4096
8192
0
4096
-4096
8192
0
4096
-4096
8192
0
4096
-4096
8192
0
4096
-4096
8192
0
4096
-4096
8192
0
4096
-4096
8192
0
4096
-4096
8192
0
4096
-4096
8192
0
4096
-4096
8192
0
4096
-4096
8192
0
4096
-4096
8192
0
4096
-4096
8192
0
4096
-4096
8192
0
4096
-4096
8192
0
4096
-4096
8192
0
4096
-4096
8192
0
4096
-4096
8192
0
4096
-4096
8192
0
4096
-4096
8192
0
4096
-4096
8192
0
4096
-4096
8192
0
4096
-4096
8192
0
4096
-4096
8192
0
4096
-4096
8192
0
4096
-4096
8192
0
4096
-4096
8192
0
4096
-4096
8192
0
4096
-4096
8192
0
4096
-4096
8192
0
4096
-4096
8192
0
4096
-4096
8192
0
4096
-4096
8192
0
4096
-4096
8192
0
4096
-4096
8192
0
4096
-4096
8192
0
4096
-4096
8192
0
4096
-4096
8192
0
4096
-4096
8192
0
4096
-4096
8192
0
4096
-4096
8192
0
4096
-4096
8192
0
4096
-4096
8192
0
4096
-4096
8192
0
4096
-4096
8192
0
4096
-4096
8192
0
4096
-4096
8192
0
4096
-4096
8192
0
4096
-4096
8192
0
4096
-4096
8192
0
4096
-4096
8192
0
4096
-4096
8192
0
4096
-4096
8192
0
4096
-4096
8192
0
4096
-4096
8192
0
4096
-4096
8192
0
4096
-4096
8192
0
4096
-4096
8192
0
4096
-4096
8192
0
4096
-4096
8192
0
4096
-4096
8192
0
4096
-4096
8192
0
4096
-4096
8192
0
4096
-4096
8192
0
4096
-4096
8192
0
4096
-4096
8192
0
4096
-4096
8192
0
4096
-4096
8192
0
4096
-4096
8192
0
4096
-4096
8192
0
4096
-4096
8192
0
4096
-4096
8192
0
4096
-4096
8192
0
4096
-4096
8192
0
4096
-4096
8192
0
4096
-4096
8192
0
4096
-4096
8192
0
4096
-4096
8192
0
4096
-4096
8192
0
4096
-4096
8192
0
4096
-4096
8192
0
4096
-4096
8192
0
4096
-4096
8192
0
4096
-4096
8192
0
4096
-4096
8192
0
4096
-4096
8192
0
4096
-4096
8192
0
4096
-4096
8192
0
4096
-4096
8192
0
4096
-4096
8192
0
4096
-4096
8192
0
4096
-4096
8192
0
4096
-4096
8192
0
4096
-4096
8192
0
4096
-4096
8192
0
4096
-4096
8192
0
4096
-4096
8192
0
4096
-4096
8192
0
4096
-4096
8192
0
4096
-4096
8192
0
4096
-4096
8192
0
4096
-4096
8192
0
4096
-4096
8192
0
4096
-4096
8192
0
4096
-4096
8192
0
4096
-4096
8192
0
4096
-4096
8192
0
4096
-4096
8192
0
4096
-4096
8192
0
4096
-4096
8192
0
4096
-4096
8192
0
4096
-4096
8192
0
4096
-4096
8192
0
4096
-4096
8192
0
4096
-4096
8192
0
4096
-4096
8192
0
4096
-4096
8192
0
4096
-4096
8192
0
4096
-4096
8192
0
4096
-4096
8192
0
4096
-4096
8192
0
4096
-4096
8192
0
4096
-4096
8192
0
4096
-4096
8192
0
4096
-4096
8192
0
4096
-4096
8192
0
4096
-4096
8192
0
4096
-4096
8192
0
4096
-4096
8192
0
4096
-4096
8192
0
4096
-4096
8192
0
4096
-4096
8192
0
4096
-4096
8192
0
4096
-4096
8192
0
4096
-4096
8192
0
4096
-4096
8192
0
4096
-4096
8192
0
4096
-4096
8192
0
4096
-4096
8192
0
4096
-4096
8192
0
4096
-4096
8192
0
4096
-4096
8192
0
4096
-4096
8192
0
4096
-4096
8192
0
4096
-4096
8192
0
4096
-4096
8192
0
4096
-4096
8192
0
4096
-4096
8192
0
4096
-4096
8192
0
4096
-4096
8192
0
4096
-4096
8192
0
4096
-4096
8192
0
4096
-4096
8192
0
4096
-4096
8192
0
4096
-4096
8192
0
4096
-4096
8192
0
4096
-4096
8192
0
4096
-4096
8192
0
4096
-4096
8192
0
4096
-4096
8192
0
4096
-4096
8192
0
4096
-4096
8192
0
4096
-4096
8192
0
4096
-4096
8192
0
4096
-4096
8192
0
4096
-4096
8192
0
4096
-4096
8192
0
4096
-4096
8192
0
4096
-4096
8192
0
4096
-4096
8192
0
4096
-4096
8192
0
4096
-4096
8192
0
4096
-4096
8192
0
4096
-4096
8192
0
4096
-4096
8192
0
4096
-4096
8192
0
4096
-4096
8192
0
4096
-4096
8192
0
4096
-4096
8192
0
4096
-4096
8192
0
4096
-4096
8192
0
4096
-4096
8192
0
4096
-4096
8192
0
4096
-4096
8192
0
4096
-4096
8192
0
4096
-4096
8192
0
4096
-4096
8192
0
4096
-4096
8192
0
4096
-4096
8192
0
4096
-4096
8192
0
4096
-4096
8192
0
4096
-4096
8192
0
4096
-4096
8192
0
4096
-4096
8192
0
4096
-4096
8192
0
4096
-4096
8192
0
4096
-4096
8192
0
4096
-4096
8192
0
4096
-4096
8192
0
4096
-4096
8192
0
4096
-4096
8192
0
4096
-4096
8192
0
4096
-4096
8192
0
4096
-4096
8192
0
4096
-4096
8192
0
4096
-4096
8192
0
4096
-4096
8192
0
4096
-4096
8192
0
4096
-4096
8192
0
4096
-4096
8192
0
4096
-4096
8192
0
4096
-4096
8192
0
4096
-4096
8192
0
4096
-4096
8192
0
4096
-4096
8192
0
4096
-4096
8192
0
4096
-4096
8192
0
4096
-4096
8192
0
4096
-4096
8192
0
4096
-4096
8192
0
4096
-4096
8192
0
4096
-4096
8192
0
4096
-4096
8192
0
4096
-4096
8192
0
4096
-4096
8192
0
4096
-4096
8192
0
4096
-4096
8192
0
4096
-4096
8192
0
4096
-4096
8192
0
4096
-4096
8192
0
4096
-4096
8192
0
4096
-4096
8192
0
4096
-4096
8192
0
4096
-4096
8192
0
4096
-4096
8192
0
4096
-4096
8192
0
4096
-4096
8192
0
4096
-4096
8192
0
4096
-4096
8192
0
4096
-4096
8192
0
4096
-4096
8192
0
4096
-4096
8192
0
4096
-4096
8192
0
4096
-4096
8192
0
4096
-4096
8192
0
4096
-4096
8192
0
4096
-4096
8192
0
4096
-4096
8192
0
4096
-4096
8192
0
4096
-4096
8192
0
4096
-4096
8192
0
4096
-4096
8192
0
4096
-4096
8192
0
4096
-4096
8192
0
4096
-4096
8192
0
4096
-4096
8192
0
4096
-4096
8192
0
4096
-4096
8192
0
4096
-4096
8192
0
4096
-4096
8192
0
4096
-4096
8192
0
4096
-4096
8192
0
4096
-4096
8192
0
4096
-4096
8192
0
4096
-4096
8192
0
4096
-4096
8192
0
4096
-4096
8192
0
4096
-4096
8192
0
4096
-4096
8192
0
4096
-4096
8192
0
4096
-4096
8192
0
4096
-4096
8192
0
4096
-4096
8192
0
4096
-4096
8192
0
4096
-4096
8192
0
4096
-4096
8192
0
4096
-4096
8192
0
4096
-4096
8192
0
4096
-4096
8192
0
4096
-4096
8192
0
4096
-4096
8192
0
4096
-4096
8192
0
4096
-4096
8192
0
4096
-4096
8192
0
4096
-4096
8192
0
4096
-4096
8192
0
4096
-4096
8192
0
4096
-4096
8192
0
4096
-4096
8192
0
4096
-4096
8192
0
4096
-4096
8192
0
4096
-4096
8192
0
4096
-4096
8192
0
4096
-4096
8192
0
4096
-4096
8192
0
4096
-4096
8192
0
4096
-4096
8192
0
4096
-4096
8192
0
4096
-4096
8192
0
4096
-4096
8192
0
4096
-4096
8192
0
4096
-4096
8192
0
4096
-4096
8192
0
4096
-4096
8192
0
4096
-4096
8192
0
4096
-4096
8192
0
4096
-4096
8192
0
4096
-4096
8192
0
4096
-4096
8192
0
4096
-4096
8192
0
4096
-4096
8192
0
4096
-4096
8192
0
4096
-4096
8192
0
4096
-4096
8192
0
4096
-4096
8192
0
4096
-4096
8192
0
4096
-4096
8192
0
4096
-4096
8192
0
4096
-4096
8192
0
4096
-4096
8192
0
4096
-4096
8192
0
4096
-4096
8192
0
4096
-4096
8192
0
4096
-4096
8192
0
4096
-4096
8192
0
4096
-4096
8192
0
4096
-4096
8192
0
4096
-4096
8192
0
4096
-4096
8192
0
4096
-4096
8192
0
4096
-4096
8192
0
4096
-4096
8192
0
4096
-4096
8192
0
4096
-4096
8192
0
4096
-4096
8192
0
4096
-4096
8192
0
4096
-4096
8192
0
4096
-4096
8192
0
4096
-4096
8192
0
4096
-4096
8192
0
4096
-4096
8192
0
4096
-4096
8192
0
4096
-4096
8192
0
4096
-4096
8192
0
4096
-4096
8192
0
4096
-4096
8192
0
4096
-4096
8192
0
4096
-4096
8192
0
4096
-4096
8192
0
4096
-4096
8192
0
4096
-4096
8192
0
4096
-4096
8192
0
4096
-4096
8192
0
4096
-4096
8192
0
4096
-4096
8192
0
4096
-4096
8192
0
4096
-4096
8192
0
4096
-4096
8192
0
4096
-4096
8192
0
4096
-4096
8192
0
4096
-4096
8192
0
4096
-4096
8192
0
4096
-4096
8192
0
4096
-4096
8192
0
4096
-4096
8192
0
4096
-4096
8192
0
4096
-4096
8192
0
4096
-4096
8192
0
4096
-4096
8192
0
4096
-4096
8192
0
4096
-4096
8192
0
4096
-4096
8192
0
4096
-4096
8192
0
4096
-4096
8192
0
4096
-4096
8192
0
4096
-4096
8192
0
4096
-4096
8192
0
4096
-4096
8192
0
4096
-4096
8192
0
4096
-4096
8192
0
4096
-4096
8192
0
4096
-4096
8192
0
4096
-4096
8192
0
4096
-4096
8192
0
4096
-4096
8192
0
4096
-4096
8192
0
4096
-4096
8192
0
4096
-4096
8192
0
4096
-4096
8192
0
4096
-4096
8192
0
4096
-4096
8192
0
4096
-4096
8192
0
4096
-4096
8192
0
4096
-4096
8192
0
4096
-4096
8192
0
4096
-4096
8192
0
4096
-4096
8192
0
4096
-4096
8192
0
4096
-4096
8192
0
4096
-4096
8192
0
4096
-4096
8192
0
4096
-4096
8192
0
4096
-4096
8192
0
4096
-4096
8192
0
4096
-4096
8192
0
4096
-4096
8192
0
4096
-4096
8192
0
4096
-4096
8192
0
4096
-4096
8192
0
4096
-4096
8192
0
4096
-4096
8192
0
4096
-4096
8192
0
4096
-4096
8192
0
4096
-4096
8192
0
4096
-4096
8192
0
4096
-4096
8192
0
4096
-4096
8192
0
4096
-4096
8192
0
4096
-4096
8192
0
4096
-4096
8192
0
4096
-4096
8192
0
4096
-4096
8192
0
4096
-4096
8192
0
4096
-4096
8192
0
4096
-4096
8192
0
4096
-4096
8192
0
4096
-4096
8192
0
4096
-4096
8192
0
4096
-4096
8192
0
4096
-4096
8192
0
4096
-4096
8192
0
4096
-4096
8192
0
4096
-4096
8192
0
4096
-4096
8192
0
4096
-4096
8192
0
4096
-4096
8192
0
4096
-4096
8192
0
4096
-4096
8192
0
4096
-4096
8192
0
4096
-4096
8192
0
4096
-4096
8192
0
4096
-4096
8192
0
4096
-4096
8192
0
4096
-4096
8192
0
4096
-4096
8192
0
4096
-4096
8192
0
4096
-4096
8192
0
4096
-4096
8192
0
4096
-4096
8192
0
4096
-4096
8192
0
4096
-4096
8192
0
4096
-4096
8192
0
4096
-4096
8192
0
4096
-4096
8192
0
4096
-4096
8192
0
4096
-4096
8192
0
4096
-4096
8192
0
4096
-4096
8192
0
4096
-4096
8192
0
4096
-4096
8192
0
4096
-4096
8192
0
4096
-4096
8192
0
4096
-4096
8192
0
4096
-4096
8192
0
4096
-4096
8192
0
4096
-4096
8192
0
4096
-4096
8192
0
4096
-4096
8192
0
4096
-4096
8192
0
4096
-4096
8192
0
4096
-4096
8192
0
4096
-4096
8192
0
4096
-4096
8192
0
4096
-4096
8192
0
4096
-4096
8192
0
4096
-4096
8192
0
4096
-4096
8192
0
4096
-4096
8192
0
4096
-4096
8192
0
4096
-4096
8192
0
4096
-4096
8192
0
4096
-4096
8192
0
4096
-4096
8192
0
4096
-4096
8192
0
4096
-4096
8192
0
4096
-4096
8192
0
4096
-4096
8192
0
4096
-4096
8192
0
4096
-4096
8192
0
4096
-4096
8192
0
4096
-4096
8192
0
4096
-4096
8192
0
4096
-4096
8192
0
4096
-4096
8192
0
4096
-4096
8192
0
4096
-4096
8192
0
4096
-4096
8192
0
4096
-4096
8192
0
4096
-4096
8192
0
4096
-4096
8192
0
4096
-4096
8192
0
4096
-4096
8192
0
4096
-4096
8192
0
4096
-4096
8192
0
4096
-4096
8192
0
4096
-4096
8192
0
4096
-4096
8192
0
4096
-4096
8192
0
4096
-4096
8192
0
4096
-4096
8192
0
4096
-4096
8192
0
4096
-4096
8192
0
4096
-4096
8192
0
4096
-4096
8192
0
4096
-4096
8192
0
4096
-4096
8192
0
4096
-4096
8192
0
4096
-4096
8192
0
4096
-4096
8192
0
4096
-4096
8192
0
4096
-4096
8192
0
4096
-4096
8192
0
4096
-4096
8192
0
4096
-4096
8192
0
4096
-4096
8192
0
4096
-4096
8192
0
4096
-4096
8192
0
4096
-4096
8192
0
4096
-4096
8192
0
4096
-4096
8192
0
4096
-4096
8192
0
4096
-4096
8192
0
4096
-4096
8192
0
4096
-4096
8192
0
4096
-4096
8192
0
4096
-4096
8192
0
4096
-4096
8192
0
4096
-4096
8192
0
4096
-4096
8192
0
4096
-4096
8192
0
4096
-4096
8192
0
4096
-4096
8192
0
4096
-4096
8192
0
4096
-4096
8192
0
4096
-4096
8192
0
4096
-4096
8192
0
4096
-4096
8192
0
4096
-4096
8192
0
4096
-4096
8192
0
4096
-4096
8192
0
4096
-4096
8192
0
4096
-4096
8192
0
4096
-4096
8192
0
4096
-4096
8192
0
4096
-4096
8192
0
4096
-4096
8192
0
4096
-4096
8192
0
4096
-4096
8192
0
4096
-4096
8192
0
4096
-4096
8192
0
4096
-4096
8192
0
4096
-4096
8192
0
4096
-4096
8192
0
4096
-4096
8192
0
4096
-4096
8192
0
4096
-4096
8192
0
4096
-4096
8192
0
4096
-4096
8192
0
4096
-4096
8192
0
4096
-4096
8192
0
4096
-4096
8192
0
4096
-4096
8192
0
4096
-4096
8192
0
4096
-4096
8192
0
4096
-4096
8192
0
4096
-4096
8192
0
4096
-4096
8192
0
4096
-4096
8192
0
4096
-4096
8192
0
4096
-4096
8192
0
4096
-4096
8192
0
4096
-4096
8192
0
4096
-4096
8192
0
4096
-4096
8192
0
4096
-4096
8192
0
4096
-4096
8192
0
4096
-4096
8192
0
4096
-4096
8192
0
4096
-4096
8192
0
4096
-4096
8192
0
4096
-4096
8192
0
4096
-4096
8192
0
4096
-4096
8192
0
4096
-4096
8192
0
4096
-4096
8192
0
4096
-4096
8192
0
4096
-4096
8192
0
4096
-4096
8192
0
4096
-4096
8192
0
4096
-4096
8192
0
4096
-4096
8192
0
4096
-4096
8192
0
4096
-4096
8192
0
4096
-4096
8192
0
4096
-4096
8192
0
4096
-4096
8192
0
4096
-4096
8192
0
4096
-4096
8192
0
4096
-4096
8192
0
4096
-4096
8192
0
4096
-4096
8192
0
4096
-4096
8192
0
4096
-4096
8192
0
4096
-4096
8192
0
4096
-4096
8192
0
4096
-4096
8192
0
4096
-4096
8192
0
4096
-4096
8192
0
4096
-4096
8192
0
4096
-4096
8192
0
4096
-4096
8192
0
4096
-4096
8192
0
4096
-4096
8192
0
4096
-4096
8192
0
4096
-4096
8192
0
4096
-4096
8192
0
4096
-4096
8192
0
4096
-4096
8192
0
4096
-4096
8192
0
4096
-4096
8192
0
4096
-4096
8192
0
4096
-4096
8192
0
4096
-4096
8192
0
4096
-4096
8192
0
4096
-4096
8192
0
4096
-4096
8192
0
4096
-4096
8192
0
4096
-4096
8192
0
4096
-4096
8192
0
4096
-4096
8192
0
4096
-4096
8192
0
4096
-4096
8192
0
4096
-4096
8192
0
4096
-4096
8192
0
4096
-4096
8192
0
4096
-4096
8192
0
4096
-4096
8192
0
4096
-4096
8192
0
4096
-4096
8192
0
4096
-4096
8192
0
4096
-4096
8192
0
4096
-4096
8192
0
4096
-4096
8192
0
4096
-4096
8192
0
4096
-4096
8192
0
4096
-4096
8192
0
4096
-4096
8192
0
4096
-4096
8192
0
4096
-4096
8192
0
4096
-4096
8192
0
4096
-4096
8192
0
4096
-4096
8192
0
4096
-4096
8192
0
4096
-4096
8192
0
4096
-4096
8192
0
4096
-4096
8192
0
4096
-4096
8192
0
4096
-4096
8192
0
4096
-4096
8192
0
4096
-4096
8192
0
4096
-4096
8192
0
4096
-4096
8192
0
4096
-4096
8192
0
4096
-4096
8192
0
4096
-4096
8192
0
4096
-4096
8192
0
4096
-4096
8192
0
4096
-4096
8192
0
4096
-4096
8192
0
4096
-4096
8192
0
4096
-4096
8192
0
4096
-4096
8192
0
4096
-4096
8192
0
4096
-4096
8192
0
4096
-4096
8192
0
4096
-4096
8192
0
4096
-4096
8192
0
4096
-4096
8192
0
4096
-4096
8192
0
4096
-4096
8192
0
4096
-4096
8192
0
4096
-4096
8192
0
4096
-4096
8192
0
4096
-4096
8192
0
4096
-4096
8192
0
4096
-4096
8192
0
4096
-4096
8192
0
4096
-4096
8192
0
4096
-4096
8192
0
4096
-4096
8192
0
4096
-4096
8192
0
4096
-4096
8192
0
4096
-4096
8192
0
4096
-4096
8192
0
4096
-4096
8192
0
4096
-4096
8192
0
4096
-4096
8192
0
4096
-4096
8192
0
4096
-4096
8192
0
4096
-4096
8192
0
4096
-4096
8192
0
4096
-4096
8192
0
4096
-4096
8192
0
4096
-4096
8192
0
4096
-4096
8192
0
4096
-4096
8192
0
4096
-4096
8192
0
4096
-4096
8192
0
4096
-4096
8192
0
4096
-4096
8192
0
4096
-4096
8192
0
4096
-4096
8192
0
4096
-4096
8192
0
4096
-4096
8192
0
4096
-4096
8192
0
4096
-4096
8192
0
4096
-4096
8192
0
4096
-4096
8192
0
4096
-4096
8192
0
4096
-4096
8192
0
4096
-4096
8192
0
4096
-4096
8192
0
4096
-4096
8192
0
4096
-4096
8192
0
4096
-4096
8192
0
4096
-4096
8192
0
4096
-4096
8192
0
4096
-4096
8192
0
4096
-4096
8192
0
4096
-4096
8192
0
4096
-4096
8192
0
4096
-4096
8192
0
4096
-4096
8192
0
4096
-4096
8192
0
4096
-4096
8192
0
4096
-4096
8192
0
4096
-4096
8192
0
4096
-4096
8192
0
4096
-4096
8192
0
4096
-4096
8192
0
4096
-4096
8192
0
4096
-4096
8192
0
4096
-4096
8192
0
4096
-4096
8192
0
4096
-4096
8192
0
4096
-4096
8192
0
4096
-4096
8192
0
4096
-4096
8192
0
4096
-4096
8192
0
4096
-4096
8192
0
4096
-4096
8192
0
4096
-4096
8192
0
4096
-4096
8192
0
4096
-4096
8192
0
4096
-4096
8192
0
4096
-4096
8192
0
4096
-4096
8192
0
4096
-4096
8192
0
4096
-4096
8192
0
4096
-4096
8192
0
4096
-4096
8192
0
4096
-4096
8192
0
4096
-4096
8192
0
4096
-4096
8192
0
4096
-4096
8192
0
4096
-4096
8192
0
4096
-4096
8192
0
4096
-4096
8192
0
4096
-4096
8192
0
4096
-4096
8192
0
4096
-4096
8192
0
4096
-4096
8192
0
4096
-4096
8192
0
4096
-4096
8192
0
4096
-4096
8192
0
4096
-4096
8192
0
4096
-4096
8192
0
4096
-4096
8192
0
4096
-4096
8192
0
4096
-4096
8192
0
4096
-4096
8192
0
4096
-4096
8192
0
4096
-4096
8192
0
4096
-4096
8192
0
4096
-4096
8192
0
4096
-4096
8192
0
4096
-4096
8192
0
4096
-4096
8192
0
4096
-4096
8192
0
4096
-4096
8192
0
4096
-4096
8192
0
4096
-4096
8192
0
4096
-4096
8192
0
4096
-4096
8192
0
4096
-4096
8192
0
4096
-4096
8192
0
4096
-4096
8192
0
4096
-4096
8192
0
4096
-4096
8192
0
4096
-4096
8192
0
4096
-4096
8192
0
4096
-4096
8192
0
4096
-4096
8192
0
4096
-4096
8192
0
4096
-4096
8192
0
4096
-4096
8192
0
4096
-4096
8192
0
4096
-4096
8192
0
4096
-4096
8192
0
4096
-4096
8192
0
4096
-4096
8192
0
4096
-4096
8192
0
4096
-4096
8192
0
4096
-4096
8192
0
4096
-4096
8192
0
4096
-4096
8192
0
4096
-4096
8192
0
4096
-4096
8192
0
4096
-4096
8192
0
4096
-4096
8192
0
4096
-4096
8192
0
4096
-4096
8192
0
4096
-4096
8192
0
4096
-4096
8192
0
4096
-4096
8192
0
4096
-4096
8192
0
4096
-4096
8192
0
4096
-4096
8192
0
4096
-4096
8192
0
4096
-4096
8192
0
4096
-4096
8192
0
4096
-4096
8192
0
4096
-4096
8192
0
4096
-4096
8192
0
4096
-4096
8192
0
4096
-4096
8192
0
4096
-4096
8192
0
4096
-4096
8192
0
4096
-4096
8192
0
4096
-4096
8192
0
4096
-4096
8192
0
4096
-4096
8192
0
4096
-4096
8192
0
4096
-4096
8192
0
4096
-4096
8192
0
4096
-4096
8192
0
4096
-4096
8192
0
4096
-4096
8192
0
4096
-4096
8192
0
4096
-4096
8192
0
4096
-4096
8192
0
4096
-4096
8192
0
4096
-4096
8192
0
4096
-4096
8192
0
4096
-4096
8192
0
4096
-4096
8192
0
4096
-4096
8192
0
4096
-4096
8192
0
4096
-4096
8192
0
4096
-4096
8192
0
4096
-4096
8192
0
4096
-4096
8192
0
4096
-4096
8192
0
4096
-4096
8192
0
4096
-4096
8192
0
4096
-4096
8192
0
4096
-4096
8192
0
4096
-4096
8192
0
4096
-4096
8192
0
4096
-4096
8192
0
4096
-4096
8192
0
4096
-4096
8192
0
4096
-4096
8192
0
4096
-4096
8192
0
4096
-4096
8192
0
4096
-4096
8192
0
4096
-4096
8192
0
4096
-4096
8192
0
4096
-4096
8192
0
4096
-4096
8192
0
4096
-4096
8192
0
4096
-4096
8192
0
4096
-4096
8192
0
4096
-4096
8192
0
4096
-4096
8192
0
4096
-4096
8192
0
4096
-4096
8192
0
4096
-4096
8192
0
4096
-4096
8192
0
4096
-4096
8192
0
4096
-4096
8192
0
4096
-4096
8192
0
4096
-4096
8192
0
4096
-4096
8192
0
4096
-4096
8192
0
4096
-4096
8192
0
4096
-4096
8192
0
4096
-4096
8192
0
4096
-4096
8192
0
4096
-4096
8192
0
4096
-4096
8192
0
4096
-4096
8192
0
4096
-4096
8192
0
4096
-4096
8192
0
4096
-4096
8192
0
4096
-4096
8192
0
4096
-4096
8192
0
4096
-4096
8192
0
4096
-4096
8192
0
4096
-4096
8192
0
4096
-4096
8192
0
4096
-4096
8192
0
4096
-4096
8192
0
4096
-4096
8192
0
4096
-4096
8192
0
4096
-4096
8192
0
4096
-4096
8192
0
4096
-4096
8192
0
4096
-4096
8192
0
4096
-4096
8192
0
4096
-4096
8192
0
4096
-4096
8192
0
4096
-4096
8192
0
4096
-4096
8192
0
4096
-4096
8192
0
4096
-4096
8192
0
4096
-4096
8192
0
4096
-4096
8192
0
4096
-4096
8192
0
4096
-4096
8192
0
4096
-4096
8192
0
4096
-4096
8192
0
4096
-4096
8192
0
4096
-4096
8192
0
4096
-4096
8192
0
4096
-4096
8192
0
4096
-4096
8192
0
4096
-4096
8192
0
4096
-4096
8192
0
4096
-4096
8192
0
4096
-4096
8192
0
4096
-4096
8192
0
4096
-4096
8192
0
4096
-4096
8192
0
4096
-4096
8192
0
4096
-4096
8192
0
4096
-4096
8192
0
4096
-4096
8192
0
4096
-4096
8192
0
4096
-4096
8192
0
4096
-4096
8192
0
4096
-4096
8192
0
4096
-4096
8192
0
4096
-4096
8192
0
4096
-4096
8192
0
4096
-4096
8192
0
4096
-4096
8192
0
4096
-4096
8192
0
4096
-4096
8192
0
4096
-4096
8192
0
4096
-4096
8192
0
4096
-4096
8192
0
4096
-4096
8192
0
4096
-4096
8192
0
4096
-4096
8192
0
4096
-4096
8192
0
4096
-4096
8192
0
4096
-4096
8192
0
4096
-4096
8192
0
4096
-4096
8192
0
4096
-4096
8192
0
4096
-4096
8192
0
4096
-4096
8192
0
4096
-4096
8192
0
4096
-4096
8192
0
4096
-4096
8192
0
4096
-4096
8192
0
4096
-4096
8192
0
4096
-4096
8192
0
4096
-4096
8192
0
4096
-4096
8192
0
4096
-4096
8192
0
4096
-4096
8192
0
4096
-4096
8192
0
4096
-4096
8192
0
4096
-4096
8192
0
4096
-4096
8192
0
4096
-4096
8192
0
4096
-4096
8192
0
4096
-4096
8192
0
4096
-4096
8192
0
4096
-4096
8192
0
4096
-4096
8192
0
4096
-4096
8192
0
4096
-4096
8192
0
4096
-4096
8192
0
4096
-4096
8192
0
4096
-4096
8192
0
4096
-4096
8192
0
4096
-4096
8192
0
4096
-4096
8192
0
4096
-4096
8192
0
4096
-4096
8192
0
4096
-4096
8192
0
4096
-4096
8192
0
4096
-4096
8192
0
4096
-4096
8192
0
4096
-4096
8192
0
4096
-4096
8192
0
4096
-4096
8192
0
4096
-4096
8192
0
4096
-4096
8192
0
4096
-4096
8192
0
4096
-4096
8192
0
4096
-4096
8192
0
4096
-4096
8192
0
4096
-4096
8192
0
4096
-4096
8192
0
4096
-4096
8192
0
4096
-4096
8192
0
4096
-4096
8192
0
4096
-4096
8192
0
4096
-4096
8192
0
4096
-4096
8192
0
4096
-4096
8192
0
4096
-4096
8192
0
4096
-4096
8192
0
4096
-4096
8192
0
4096
-4096
8192
0
4096
-4096
8192
0
4096
-4096
8192
0
4096
-4096
8192
0
4096
-4096
8192
0
4096
-4096
8192
0
4096
-4096
8192
0
4096
-4096
8192
0
4096
-4096
8192
0
4096
-4096
8192
0
4096
-4096
8192
0
4096
-4096
8192
0
4096
-4096
8192
0
4096
-4096
8192
0
4096
-4096
8192
0
4096
-4096
8192
0
4096
-4096
8192
0
4096
-4096
8192
0
4096
-4096
8192
0
4096
-4096
8192
0
4096
-4096
8192
0
4096
-4096
8192
0
4096
-4096
8192
0
4096
-4096
8192
0
4096
-4096
8192
0
4096
-4096
8192
0
4096
-4096
8192
0
4096
-4096
8192
0
4096
-4096
8192
0
4096
-4096
8192
0
4096
-4096
8192
0
4096
-4096
8192
0
4096
-4096
8192
0
4096
-4096
8192
0
4096
-4096
8192
0
4096
-4096
8192
0
4096
-4096
8192
0
4096
-4096
8192
0
4096
-4096
8192
0
4096
-4096
8192
0
4096
-4096
8192
0
4096
-4096
8192
0
4096
-4096
8192
0
4096
-4096
8192
0
4096
-4096
8192
0
4096
-4096
8192
0
4096
-4096
8192
0
4096
-4096
8192
0
4096
-4096
8192
0
4096
-4096
8192
0
4096
-4096
8192
0
4096
-4096
8192
0
4096
-4096
8192
0
4096
-4096
8192
0
4096
-4096
8192
0
4096
-4096
8192
0
4096
-4096
8192
0
4096
-4096
8192
0
4096
-4096
8192
0
4096
-4096
8192
0
4096
-4096
8192
0
4096
-4096
8192
0
4096
-4096
8192
0
4096
-4096
8192
0
4096
-4096
8192
0
4096
-4096
8192
0
4096
-4096
8192
0
4096
-4096
8192
0
4096
-4096
8192
0
4096
-4096
8192
0
4096
-4096
8192
0
4096
-4096
8192
0
4096
-4096
8192
0
4096
-4096
8192
0
4096
-4096
8192
0
4096
-4096
8192
0
4096
-4096
8192
0
4096
-4096
8192
0
4096
-4096
8192
0
4096
-4096
8192
0
4096
-4096
8192
0
4096
-4096
8192
0
4096
-4096
8192
0
4096
-4096
8192
0
4096
-4096
8192
0
4096
-4096
8192
0
4096
-4096
8192
0
4096
-4096
8192
0
4096
-4096
8192
0
4096
-4096
8192
0
4096
-4096
8192
0
4096
-4096
8192
0
4096
-4096
8192
0
4096
-4096
8192
0
4096
-4096
8192
0
4096
-4096
8192
0
4096
-4096
8192
0
4096
-4096
8192
0
4096
-4096
8192
0
4096
-4096
8192
0
4096
-4096
8192
0
4096
-4096
8192
0
4096
-4096
8192
0
4096
-4096
8192
0
4096
-4096
8192
0
4096
-4096
8192
0
4096
-4096
8192
0
4096
-4096
8192
0
4096
-4096
8192
0
4096
-4096
8192
0
4096
-4096
8192
0
4096
-4096
8192
0
4096
-4096
8192
0
4096
-4096
8192
0
4096
-4096
8192
0
4096
-4096
8192
0
4096
-4096
8192
0
4096
-4096
8192
0
4096
-4096
8192
0
4096
-4096
8192
0
4096
-4096
8192
0
4096
-4096
8192
0
4096
-4096
8192
0
4096
-4096
8192
0
4096
-4096
8192
0
4096
-4096
8192
0
4096
-4096
8192
0
4096
-4096
8192
0
4096
-4096
8192
0
4096
-4096
8192
0
4096
-4096
8192
0
4096
-4096
8192
0
4096
-4096
8192
0
4096
-4096
8192
0
4096
-4096
8192
0
4096
-4096
8192
0
4096
-4096
8192
0
4096
-4096
8192
0
4096
-4096
8192
0
4096
-4096
8192
0
4096
-4096
8192
0
4096
-4096
8192
0
4096
-4096
8192
0
4096
-4096
8192
0
4096
-4096
8192
0
4096
-4096
8192
0
4096
-4096
8192
0
4096
-4096
8192
0
4096
-4096
8192
0
4096
-4096
8192
0
4096
-4096
8192
0
4096
-4096
8192
0
4096
-4096
8192
0
4096
-4096
8192
0
4096
-4096
8192
0
4096
-4096
8192
0
4096
-4096
8192
0
4096
-4096
8192
0
4096
-4096
8192
0
4096
-4096
8192
0
4096
-4096
8192
0
4096
-4096
8192
0
4096
-4096
8192
0
4096
-4096
8192
0
4096
-4096
8192
0
4096
-4096
8192
0
4096
-4096
8192
0
4096
-4096
8192
0
4096
-4096
8192
0
4096
-4096
8192
0
4096
-4096
8192
0
4096
-4096
8192
0
4096
-4096
8192
0
4096
-4096
8192
0
4096
-4096
8192
0
4096
-4096
8192
0
4096
-4096
8192
0
4096
-4096
8192
0
4096
-4096
8192
0
4096
-4096
8192
0
4096
-4096
8192
0
4096
-4096
8192
0
4096
-4096
8192
0
4096
-4096
8192
0
4096
-4096
8192
0
4096
-4096
8192
0
4096
-4096
8192
0
4096
-4096
8192
0
4096
-4096
8192
0
4096
-4096
8192
0
4096
-4096
8192
0
4096
-4096
8192
0
4096
-4096
8192
0
4096
-4096
8192
0
4096
-4096
8192
0
4096
-4096
8192
0
4096
-4096
8192
0
4096
-4096
8192
0
4096
-4096
8192
0
4096
-4096
8192
0
4096
-4096
8192
0
4096
-4096
8192
0
4096
-4096
8192
0
4096
-4096
8192
0
4096
-4096
8192
0
4096
-4096
8192
0
4096
-4096
8192
0
4096
-4096
8192
0
4096
-4096
8192
0
4096
-4096
8192
0
4096
-4096
8192
0
4096
-4096
8192
0
4096
-4096
8192
0
4096
-4096
8192
0
4096
-4096
8192
0
4096
-4096
8192
0
4096
-4096
8192
0
4096
-4096
8192
0
4096
-4096
8192
0
4096
-4096
8192
0
4096
-4096
8192
0
4096
-4096
8192
0
4096
-4096
8192
0
4096
-4096
8192
0
4096
-4096
8192
0
4096
-4096
8192
0
4096
-4096
8192
0
4096
-4096
8192
0
4096
-4096
8192
0
4096
-4096
8192
0
4096
-4096
8192
0
4096
-4096
8192
0
4096
-4096
8192
0
4096
-4096
8192
0
4096
-4096
8192
0
4096
-4096
8192
0
4096
-4096
8192
0
4096
-4096
8192
0
4096
-4096
8192
0
4096
-4096
8192
0
4096
-4096
8192
0
4096
-4096
8192
0
4096
-4096
8192
0
4096
-4096
8192
0
4096
-4096
8192
0
4096
-4096
8192
0
4096
-4096
8192
0
4096
-4096
8192
0
4096
-4096
8192
0
4096
-4096
8192
0
4096
-4096
8192
0
4096
-4096
8192
0
4096
-4096
8192
0
4096
-4096
8192
0
4096
-4096
8192
0
4096
-4096
8192
0
4096
-4096
8192
0
4096
-4096
8192
0
4096
-4096
8192
0
4096
-4096
8192
0
4096
-4096
8192
0
4096
-4096
8192
0
4096
-4096
8192
0
4096
-4096
8192
0
4096
-4096
8192
0
4096
-4096
8192
0
4096
-4096
8192
0
4096
-4096
8192
0
4096
-4096
8192
0
4096
-4096
8192
0
4096
-4096
8192
0
4096
-4096
8192
0
4096
-4096
8192
0
4096
-4096
8192
0
4096
-4096
8192
0
4096
-4096
8192
0
4096
-4096
8192
0
4096
-4096
8192
0
4096
-4096
8192
0
4096
-4096
8192
0
4096
-4096
8192
0
4096
-4096
8192
0
4096
-4096
8192
0
4096
-4096
8192
0
4096
-4096
8192
0
4096
-4096
8192
0
4096
-4096
8192
0
4096
-4096
8192
0
4096
-4096
8192
0
4096
-4096
8192
0
4096
-4096
8192
0
4096
-4096
8192
0
4096
-4096
8192
0
4096
-4096
8192
0
4096
-4096
8192
0
4096
-4096
8192
0
4096
-4096
8192
0
4096
-4096
8192
0
4096
-4096
8192
0
4096
-4096
8192
0
4096
-4096
8192
0
4096
-4096
8192
0
4096
-4096
8192
0
4096
-4096
8192
0
4096
-4096
8192
0
4096
-4096
8192
0
4096
-4096
8192
0
4096
-4096
8192
0
4096
-4096
8192
0
4096
-4096
8192
0
4096
-4096
8192
0
4096
-4096
8192
0
4096
-4096
8192
0
4096
-4096
8192
0
4096
-4096
8192
0
4096
-4096
8192
0
4096
-4096
8192
0
4096
-4096
8192
0
4096
-4096
8192
0
4096
-4096
8192
0
4096
-4096
8192
0
4096
-4096
8192
0
4096
-4096
8192
0
4096
-4096
8192
0
4096
-4096
8192
0
4096
-4096
8192
0
4096
-4096
8192
0
4096
-4096
8192
0
4096
-4096
8192
0
4096
-4096
8192
0
4096
-4096
8192
0
4096
-4096
8192
0
4096
-4096
8192
0
4096
-4096
8192
0
4096
-4096
8192
0
4096
-4096
8192
0
4096
-4096
8192
0
4096
-4096
8192
0
4096
-4096
8192
0
4096
-4096
8192
0
4096
-4096
8192
0
4096
-4096
8192
0
4096
-4096
8192
0
4096
-4096
8192
0
4096
-4096
8192
0
4096
-4096
8192
0
4096
-4096
8192
0
4096
-4096
8192
0
4096
-4096
8192
0
4096
-4096
8192
0
4096
-4096
8192
0
4096
-4096
8192
0
4096
-4096
8192
0
4096
-4096
8192
0
4096
-4096
8192
0
4096
-4096
8192
0
4096
-4096
8192
0
4096
-4096
8192
0
4096
-4096
8192
0
4096
-4096
8192
0
4096
-4096
8192
0
4096
-4096
8192
0
4096
-4096
8192
0
4096
-4096
8192
0
4096
-4096
8192
0
4096
-4096
8192
0
4096
-4096
8192
0
4096
-4096
8192
0
4096
-4096
8192
0
4096
-4096
8192
0
4096
-4096
8192
0
4096
-4096
8192
0
4096
-4096
8192
0
4096
-4096
8192
0
4096
-4096
8192
0
4096
-4096
8192
0
4096
-4096
8192
0
4096
-4096
8192
0
4096
-4096
8192
0
4096
-4096
8192
0
4096
-4096
8192
0
4096
-4096
8192
0
4096
-4096
8192
0
4096
-4096
8192
0
4096
-4096
8192
0
4096
-4096
8192
0
4096
-4096
8192
0
4096
-4096
8192
0
4096
-4096
8192
0
4096
-4096
8192
0
4096
-4096
8192
0
4096
-4096
8192
0
4096
-4096
8192
0
4096
-4096
8192
0
4096
-4096
8192
0
4096
-4096
8192
0
4096
-4096
8192
0
4096
-4096
8192
0
4096
-4096
8192
0
4096
-4096
8192
0
4096
-4096
8192
0
4096
-4096
8192
0
4096
-4096
8192
0
4096
-4096
8192
0
4096
-4096
8192
0
4096
-4096
8192
0
4096
-4096
8192
0
4096
-4096
8192
0
4096
-4096
8192
0
4096
-4096
8192
0
4096
-4096
8192
0
4096
-4096
8192
0
4096
-4096
8192
0
4096
-4096
8192
0
4096
-4096
8192
0
4096
-4096
8192
0
4096
-4096
8192
0
4096
-4096
8192
0
4096
-4096
8192
0
4096
-4096
8192
0
4096
-4096
8192
0
4096
-4096
8192
0
4096
-4096
8192
0
4096
-4096
8192
0
4096
-4096
8192
0
4096
-4096
8192
0
4096
-4096
8192
0
4096
-4096
8192
0
4096
-4096
8192
0
4096
-4096
8192
0
4096
-4096
8192
0
4096
-4096
8192
0
4096
-4096
8192
0
4096
-4096
8192
0
4096
-4096
8192
0
4096
-4096
8192
0
4096
-4096
8192
0
4096
-4096
8192
0
4096
-4096
8192
0
4096
-4096
8192
0
4096
-4096
8192
0
4096
-4096
8192
0
4096
-4096
8192
0
4096
-4096
8192
0
4096
-4096
8192
0
4096
-4096
8192
0
4096
-4096
8192
0
4096
-4096
8192
0
4096
-4096
8192
0
4096
-4096
8192
0
4096
-4096
8192
0
4096
-4096
8192
0
4096
-4096
8192
0
4096
-4096
8192
0
4096
-4096
8192
0
4096
-4096
8192
0
4096
-4096
8192
0
4096
-4096
8192
0
4096
-4096
8192
0
4096
-4096
8192
0
4096
-4096
8192
0
4096
-4096
8192
0
4096
-4096
8192
0
4096
-4096
8192
0
4096
-4096
8192
0
4096
-4096
8192
0
4096
-4096
8192
0
4096
-4096
8192
0
4096
-4096
8192
0
4096
-4096
8192
0
4096
-4096
8192
0
4096
-4096
8192
0
4096
-4096
8192
0
4096
-4096
8192
0
4096
-4096
8192
0
4096
-4096
8192
0
4096
-4096
8192
0
4096
-4096
8192
0
4096
-4096
8192
0
4096
-4096
8192
0
4096
-4096
8192
0
4096
-4096
8192
0
4096
-4096
8192
0
4096
-4096
8192
0
4096
-4096
8192
0
4096
-4096
8192
0
4096
-4096
8192
0
4096
-4096
8192
0
4096
-4096
8192
0
4096
-4096
8192
0
4096
-4096
8192
0
4096
-4096
8192
0
4096
-4096
8192
0
4096
-4096
8192
0
4096
-4096
8192
0
4096
-4096
8192
0
4096
-4096
8192
0
4096
-4096
8192
0
4096
-4096
8192
0
4096
-4096
8192
0
4096
-4096
8192
0
4096
-4096
8192
0
4096
-4096
8192
0
4096
-4096
8192
0
4096
-4096
8192
0
4096
-4096
8192
0
4096
-4096
8192
0
4096
-4096
8192
0
4096
-4096
8192
0
4096
-4096
8192
0
4096
-4096
8192
0
4096
-4096
8192
0
4096
-4096
8192
0
4096
-4096
8192
0
4096
-4096
8192
0
4096
-4096
8192
0
4096
-4096
8192
0
4096
-4096
8192
0
4096
-4096
8192
0
4096
-4096
8192
0
4096
-4096
8192
0
4096
-4096
8192
0
4096
-4096
8192
0
4096
-4096
8192
0
4096
-4096
8192
0
4096
-4096
8192
0
4096
-4096
8192
0
4096
-4096
8192
0
4096
-4096
8192
0
4096
-4096
8192
0
4096
-4096
8192
0
4096
-4096
8192
0
4096
-4096
8192
0
4096
-4096
8192
0
4096
-4096
8192
0
4096
-4096
8192
0
4096
-4096
8192
0
4096
-4096
8192
0
4096
-4096
8192
0
4096
-4096
8192
0
4096
-4096
8192
0
4096
-4096
8192
0
4096
-4096
8192
0
4096
-4096
8192
0
4096
-4096
8192
0
4096
-4096
8192
0
4096
-4096
8192
0
4096
-4096
8192
0
4096
-4096
8192
0
4096
-4096
8192
0
4096
-4096
8192
0
4096
-4096
8192
0
4096
-4096
8192
0
4096
-4096
8192
0
4096
-4096
8192
0
4096
-4096
8192
0
4096
-4096
8192
0
4096
-4096
8192
0
4096
-4096
8192
0
4096
-4096
8192
0
4096
-4096
8192
0
4096
-4096
8192
0
4096
-4096
8192
0
4096
-4096
8192
0
4096
-4096
8192
0
4096
-4096
8192
0
4096
-4096
8192
0
4096
-4096
8192
0
4096
-4096
8192
0
4096
-4096
8192
0
4096
-4096
8192
0
4096
-4096
8192
0
4096
-4096
8192
0
4096
-4096
8192
0
4096
-4096
8192
0
4096
-4096
8192
0
4096
-4096
8192
0
4096
-4096
8192
0
4096
-4096
8192
0
4096
-4096
8192
0
4096
-4096
8192
0
4096
-4096
8192
0
4096
-4096
8192
0
4096
-4096
8192
0
4096
-4096
8192
0
4096
-4096
8192
0
4096
-4096
8192
0
4096
-4096
8192
0
4096
-4096
8192
0
4096
-4096
8192
0
4096
-4096
8192
0
4096
-4096
8192
0
4096
-4096
8192
0
4096
-4096
8192
0
4096
-4096
8192
0
4096
-4096
8192
0
4096
-4096
8192
0
4096
-4096
8192
0
4096
-4096
8192
0
4096
-4096
8192
0
4096
-4096
8192
0
4096
-4096
8192
0
4096
-4096
8192
0
4096
-4096
8192
0
4096
-4096
8192
0
4096
-4096
8192
0
4096
-4096
8192
0
4096
-4096
8192
0
4096
-4096
8192
0
4096
-4096
8192
0
4096
-4096
8192
0
4096
-4096
8192
0
4096
-4096
8192
0
4096
-4096
8192
0
4096
-4096
8192
0
4096
-4096
8192
0
4096
-4096
8192
0
4096
-4096
8192
0
4096
-4096
8192
0
4096
-4096
8192
0
4096
-4096
8192
0
4096
-4096
8192
0
4096
-4096
8192
0
4096
-4096
8192
0
4096
-4096
8192
0
4096
-4096
8192
0
4096
-4096
8192
0
4096
-4096
8192
0
4096
-4096
8192
0
4096
-4096
8192
0
4096
-4096
8192
0
4096
-4096
8192
0
4096
-4096
8192
0
4096
-4096
8192
0
4096
-4096
8192
0
4096
-4096
8192
0
4096
-4096
8192
0
4096
-4096
8192
0
4096
-4096
8192
0
4096
-4096
8192
0
4096
-4096
8192
0
4096
-4096
8192
0
4096
-4096
8192
0
4096
-4096
8192
0
4096
-4096
8192
0
4096
-4096
8192
0
4096
-4096
8192
0
4096
-4096
8192
0
4096
-4096
8192
0
4096
-4096
8192
0
4096
-4096
8192
0
4096
-4096
8192
0
4096
-4096
8192
0
4096
-4096
8192
0
4096
-4096
8192
0
4096
-4096
8192
0
4096
-4096
8192
0
4096
-4096
8192
0
4096
-4096
8192
0
4096
-4096
8192
0
4096
-4096
8192
0
4096
-4096
8192
0
4096
-4096
8192
0
4096
-4096
8192
0
4096
-4096
8192
0
4096
-4096
8192
0
4096
-4096
8192
0
4096
-4096
8192
0
4096
-4096
8192
0
4096
-4096
8192
0
4096
-4096
8192
0
4096
-4096
8192
0
4096
-4096
8192
0
4096
-4096
8192
0
4096
-4096
8192
0
4096
-4096
8192
0
4096
-4096
8192
0
4096
-4096
8192
0
4096
-4096
8192
0
4096
-4096
8192
0
4096
-4096
8192
0
4096
-4096
8192
0
4096
-4096
8192
0
4096
-4096
8192
0
4096
-4096
8192
0
4096
-4096
8192
0
4096
-4096
8192
0
4096
-4096
8192
0
4096
-4096
8192
0
4096
-4096
8192
0
4096
-4096
8192
0
4096
-4096
8192
0
4096
-4096
8192
0
4096
-4096
8192
0
4096
-4096
8192
0
4096
-4096
8192
0
4096
-4096
8192
0
4096
-4096
8192
0
4096
-4096
8192
0
4096
-4096
8192
0
4096
-4096
8192
0
4096
-4096
8192
0
4096
-4096
8192
0
4096
-4096
8192
0
4096
-4096
8192
0
4096
-4096
8192
0
4096
-4096
8192
0
4096
-4096
8192
0
4096
-4096
8192
0
4096
-4096
8192
0
4096
-4096
8192
0
4096
-4096
8192
0
4096
-4096
8192
0
4096
-4096
8192
0
4096
-4096
8192
0
4096
-4096
8192
0
4096
-4096
8192
0
4096
-4096
8192
0
4096
-4096
8192
0
4096
-4096
8192
0
4096
-4096
8192
0
4096
-4096
8192
0
4096
-4096
8192
0
4096
-4096
8192
0
4096
-4096
8192
0
4096
-4096
8192
0
4096
-4096
8192
0
4096
-4096
8192
0
4096
-4096
8192
0
4096
-4096
8192
0
4096
-4096
8192
0
4096
-4096
8192
0
4096
-4096
8192
0
4096
-4096
8192
0
4096
-4096
8192
0
4096
-4096
8192
0
4096
-4096
8192
0
4096
-4096
8192
0
4096
-4096
8192
0
4096
-4096
8192
0
4096
-4096
8192
0
4096
-4096
8192
0
4096
-4096
8192
0
4096
-4096
8192
0
4096
-4096
8192
0
4096
-4096
8192
0
4096
-4096
8192
0
4096
-4096
8192
0
4096
-4096
8192
0
4096
-4096
8192
0
4096
-4096
8192
0
4096
-4096
8192
0
4096
-4096
8192
0
4096
-4096
8192
0
4096
-4096
8192
0
4096
-4096
8192
0
4096
-4096
8192
0
4096
-4096
8192
0
4096
-4096
8192
0
4096
-4096
8192
0
4096
-4096
8192
0
4096
-4096
8192
0
4096
-4096
8192
0
4096
-4096
8192
0
4096
-4096
8192
0
4096
-4096
8192
0
4096
-4096
8192
0
4096
-4096
8192
0
4096
-4096
8192
0
4096
-4096
8192
0
4096
-4096
8192
0
4096
-4096
8192
0
4096
-4096
8192
0
4096
-4096
8192
0
4096
-4096
8192
0
4096
-4096
8192
0
4096
-4096
8192
0
4096
-4096
8192
0
4096
-4096
8192
0
4096
-4096
8192
0
4096
-4096
8192
0
4096
-4096
8192
0
4096
-4096
8192
0
4096
-4096
8192
0
4096
-4096
8192
0
4096
-4096
8192
0
4096
-4096
8192
0
4096
-4096
8192
0
4096
-4096
8192
0
4096
-4096
8192
0
4096
-4096
8192
0
4096
-4096
8192
0
4096
-4096
8192
0
4096
-4096
8192
0
4096
-4096
8192
0
4096
-4096
8192
0
4096
-4096
8192
0
4096
-4096
8192
0
4096
-4096
8192
0
4096
-4096
8192
0
4096
-4096
8192
0
4096
-4096
8192
0
4096
-4096
8192
0
4096
-4096
8192
0
4096
-4096
8192
0
4096
-4096
8192
0
4096
-4096
8192
0
4096
-4096
8192
0
4096
-4096
8192
0
4096
-4096
8192
0
4096
-4096
8192
0
4096
-4096
8192
0
4096
-4096
8192
0
4096
-4096
8192
0
4096
-4096
8192
0
4096
-4096
8192
0
4096
-4096
8192
0
4096
-4096
8192
0
4096
-4096
8192
0
4096
-4096
8192
0
4096
-4096
8192
0
4096
-4096
8192
0
4096
-4096
8192
0
4096
-4096
8192
0
4096
-4096
8192
0
4096
-4096
8192
0
4096
-4096
8192
0
4096
-4096
8192
0
4096
-4096
8192
0
4096
-4096
8192
0
4096
-4096
8192
0
4096
-4096
8192
0
4096
-4096
8192
0
4096
-4096
8192
0
4096
-4096
8192
0
4096
-4096
8192
0
4096
-4096
8192
0
4096
-4096
8192
0
4096
-4096
8192
0
4096
-4096
8192
0
4096
-4096
8192
0
4096
-4096
8192
0
4096
-4096
8192
0
4096
-4096
8192
0
4096
-4096
8192
0
4096
-4096
8192
0
4096
-4096
8192
0
4096
-4096
8192
0
4096
-4096
8192
0
4096
-4096
8192
0
4096
-4096
8192
0
4096
-4096
8192
0
4096
-4096
8192
0
4096
-4096
8192
0
4096
-4096
8192
0
4096
-4096
8192
0
4096
-4096
8192
0
4096
-4096
8192
0
4096
-4096
8192
0
4096
-4096
8192
0
4096
-4096
8192
0
4096
-4096
8192
0
4096
-4096
8192
0
4096
-4096
8192
0
4096
-4096
8192
0
4096
-4096
8192
0
4096
-4096
8192
0
4096
-4096
8192
0
4096
-4096
8192
0
4096
-4096
8192
0
4096
-4096
8192
0
4096
-4096
8192
0
4096
-4096
8192
0
4096
-4096
8192
0
4096
-4096
8192
0
4096
-4096
8192
0
4096
-4096
8192
0
4096
-4096
8192
0
4096
-4096
8192
0
4096
-4096
8192
0
4096
-4096
8192
0
4096
-4096
8192
0
4096
-4096
8192
0
4096
-4096
8192
0
4096
-4096
8192
0
4096
-4096
8192
0
4096
-4096
8192
0
4096
-4096
8192
0
4096
-4096
8192
0
4096
-4096
8192
0
4096
-4096
8192
0
4096
-4096
8192
0
4096
-4096
8192
0
4096
-4096
8192
0
4096
-4096
8192
0
4096
-4096
8192
0
4096
-4096
8192
0
4096
-4096
8192
0
4096
-4096
8192
0
4096
-4096
8192
0
4096
-4096
8192
0
4096
-4096
8192
0
4096
-4096
8192
0
4096
-4096
8192
0
4096
-4096
8192
0
4096
-4096
8192
0
4096
-4096
8192
0
4096
-4096
8192
0
4096
-4096
8192
0
4096
-4096
8192
0
4096
-4096
8192
0
4096
-4096
8192
0
4096
-4096
8192
0
4096
-4096
8192
0
4096
-4096
8192
0
4096
-4096
8192
0
4096
-4096
8192
0
4096
-4096
8192
0
4096
-4096
8192
0
4096
-4096
8192
0
4096
-4096
8192
0
4096
-4096
8192
0
4096
-4096
8192
0
4096
-4096
8192
0
4096
-4096
8192
0
4096
-4096
8192
0
4096
-4096
8192
0
4096
-4096
8192
0
4096
-4096
8192
0
4096
-4096
8192
0
4096
-4096
8192
0
4096
-4096
8192
0
4096
-4096
8192
0
4096
-4096
8192
0
4096
-4096
8192
0
4096
-4096
8192
0
4096
-4096
8192
0
4096
-4096
8192
0
4096
-4096
8192
0
4096
-4096
8192
0
4096
-4096
8192
0
4096
-4096
8192
0
4096
-4096
8192
0
4096
-4096
8192
0
4096
-4096
8192
0
4096
-4096
8192
0
4096
-4096
8192
0
4096
-4096
8192
0
4096
-4096
8192
0
4096
-4096
8192
0
4096
-4096
8192
0
4096
-4096
8192
0
4096
-4096
8192
0
4096
-4096
8192
0
4096
-4096
8192
0
4096
-4096
8192
0
4096
-4096
8192
0
4096
-4096
8192
0
4096
-4096
8192
0
4096
-4096
8192
0
4096
-4096
8192
0
4096
-4096
8192
0
4096
-4096
8192
0
4096
-4096
8192
0
4096
-4096
8192
0
4096
-4096
8192
0
4096
-4096
8192
0
4096
-4096
8192
0
4096
-4096
8192
0
4096
-4096
8192
0
4096
-4096
8192
0
4096
-4096
8192
0
4096
-4096
8192
0
4096
-4096
8192
0
4096
-4096
8192
0
4096
-4096
8192
0
4096
-4096
8192
0
4096
-4096
8192
0
4096
-4096
8192
0
4096
-4096
8192
0
4096
-4096
8192
0
4096
-4096
8192
0
4096
-4096
8192
0
4096
-4096
8192
0
4096
-4096
8192
0
4096
-4096
8192
0
4096
-4096
8192
0
4096
-4096
8192
0
4096
-4096
8192
0
4096
-4096
8192
0
4096
-4096
8192
0
4096
-4096
8192
0
4096
-4096
8192
0
4096
-4096
8192
0
4096
-4096
8192
0
4096
-4096
8192
0
4096
-4096
8192
0
4096
-4096
8192
0
4096
-4096
8192
0
4096
-4096
8192
0
4096
-4096
8192
0
4096
-4096
8192
0
4096
-4096
8192
0
4096
-4096
8192
0
4096
-4096
8192
0
4096
-4096
8192
0
4096
-4096
8192
0
4096
-4096
8192
0
4096
-4096
8192
0
4096
-4096
8192
0
4096
-4096
8192
0
4096
-4096
8192
0
4096
-4096
8192
0
4096
-4096
8192
0
4096
-4096
8192
0
4096
-4096
8192
0
4096
-4096
8192
0
4096
-4096
8192
0
4096
-4096
8192
0
4096
-4096
8192
0
4096
-4096
8192
0
4096
-4096
8192
0
4096
-4096
8192
0
4096
-4096
8192
0
4096
-4096
8192
0
4096
-4096
8192
0
4096
-4096
8192
0
4096
-4096
8192
0
4096
-4096
8192
0
4096
-4096
8192
0
4096
-4096
8192
0
4096
-4096
8192
0
4096
-4096
8192
0
4096
-4096
8192
0
4096
-4096
8192
0
4096
-4096
8192
0
4096
-4096
8192
0
4096
-4096
8192
0
4096
-4096
8192
0
4096
-4096
8192
0
4096
-4096
8192
0
4096
-4096
8192
0
4096
-4096
8192
0
4096
-4096
8192
0
4096
-4096
8192
0
4096
-4096
8192
0
4096
-4096
8192
0
4096
-4096
8192
0
4096
-4096
8192
0
4096
-4096
8192
0
4096
-4096
8192
0
4096
-4096
8192
0
4096
-4096
8192
0
4096
-4096
8192
0
4096
-4096
8192
0
4096
-4096
8192
0
4096
-4096
8192
0
4096
-4096
8192
0
4096
-4096
8192
0
4096
-4096
8192
0
4096
-4096
8192
0
4096
-4096
8192
0
4096
-4096
8192
0
4096
-4096
8192
0
4096
-4096
8192
0
4096
-4096
8192
0
4096
-4096
8192
0
4096
-4096
8192
0
4096
-4096
8192
0
4096
-4096
8192
0
4096
-4096
8192
0
4096
-4096
8192
0
4096
-4096
8192
0
4096
-4096
8192
0
4096
-4096
8192
0
4096
-4096
8192
0
4096
-4096
8192
0
4096
-4096
8192
0
4096
-4096
8192
0
4096
-4096
8192
0
4096
-4096
8192
0
4096
-4096
8192
0
4096
-4096
8192
0
4096
-4096
8192
0
4096
-4096
8192
0
4096
-4096
8192
0
4096
-4096
8192
0
4096
-4096
8192
0
4096
-4096
8192
0
4096
-4096
8192
0
4096
-4096
8192
0
4096
-4096
8192
0
4096
-4096
8192
0
4096
-4096
8192
0
4096
-4096
8192
0
4096
-4096
8192
0
4096
-4096
8192
0
4096
-4096
8192
0
4096
-4096
8192
0
4096
-4096
8192
0
4096
-4096
8192
0
4096
-4096
8192
0
4096
-4096
8192
0
4096
-4096
8192
0
4096
-4096
8192
0
4096
-4096
8192
0
4096
-4096
8192
0
4096
-4096
8192
0
4096
-4096
8192
0
4096
-4096
8192
0
4096
-4096
8192
0
4096
-4096
8192
0
4096
-4096
8192
0
4096
-4096
8192
0
4096
-4096
8192
0
4096
-4096
8192
0
4096
-4096
8192
0
4096
-4096
8192
0
4096
-4096
8192
0
4096
-4096
8192
0
4096
-4096
8192
0
4096
-4096
8192
0
4096
-4096
8192
0
4096
-4096
8192
0
4096
-4096
8192
0
4096
-4096
8192
0
4096
-4096
8192
0
4096
-4096
8192
0
4096
-4096
8192
0
4096
-4096
8192
0
4096
-4096
8192
0
4096
-4096
8192
0
4096
-4096
8192
0
4096
-4096
8192
0
4096
-4096
8192
0
4096
-4096
8192
0
4096
-4096
8192
0
4096
-4096
8192
0
4096
-4096
8192
0
4096
-4096
8192
0
4096
-4096
8192
0
4096
-4096
8192
0
4096
-4096
8192
0
4096
-4096
8192
0
4096
-4096
8192
0
4096
-4096
8192
0
4096
-4096
8192
0
4096
-4096
8192
0
4096
-4096
8192
0
4096
-4096
8192
0
4096
-4096
8192
0
4096
-4096
8192
0
4096
-4096
8192
0
4096
-4096
8192
0
4096
-4096
8192
0
4096
-4096
8192
0
4096
-4096
8192
0
4096
-4096
8192
0
4096
-4096
8192
0
4096
-4096
8192
0
4096
-4096
8192
0
4096
-4096
8192
0
4096
-4096
8192
0
4096
-4096
8192
0
4096
-4096
8192
0
4096
-4096
8192
0
4096
-4096
8192
0
4096
-4096
8192
0
4096
-4096
8192
0
4096
-4096
8192
0
4096
-4096
8192
0
4096
-4096
8192
0
4096
-4096
8192
0
4096
-4096
8192
0
4096
-4096
8192
0
4096
-4096
8192
0
4096
-4096
8192
0
4096
-4096
8192
0
4096
-4096
8192
0
4096
-4096
8192
0
4096
-4096
8192
0
4096
-4096
8192
0
4096
-4096
8192
0
4096
-4096
8192
0
4096
-4096
8192
0
4096
-4096
8192
0
4096
-4096
8192
0
4096
-4096
8192
0
4096
-4096
8192
0
4096
-4096
8192
0
4096
-4096
8192
0
4096
-4096
8192
0
4096
-4096
8192
0
4096
-4096
8192
0
4096
-4096
8192
0
4096
-4096
8192
0
4096
-4096
8192
0
4096
-4096
8192
0
4096
-4096
8192
0
4096
-4096
8192
0
4096
-4096
8192
0
4096
-4096
8192
0
4096
-4096
8192
0
4096
-4096
8192
0
4096
-4096
8192
0
4096
-4096
8192
0
4096
-4096
8192
0
4096
-4096
8192
0
4096
-4096
8192
0
4096
-4096
8192
0
4096
-4096
8192
0
4096
-4096
8192
0
4096
-4096
8192
0
4096
-4096
8192
0
4096
-4096
8192
0
4096
-4096
8192
0
4096
-4096
8192
0
4096
-4096
8192
0
4096
-4096
8192
0
4096
-4096
8192
0
4096
-4096
8192
0
4096
-4096
8192
0
4096
-4096
8192
0
4096
-4096
8192
0
4096
-4096
8192
0
4096
-4096
8192
0
4096
-4096
8192
0
4096
-4096
8192
0
4096
-4096
8192
0
4096
-4096
8192
0
4096
-4096
8192
0
4096
-4096
8192
0
4096
-4096
8192
0
4096
-4096
8192
0
4096
-4096
8192
0
4096
-4096
8192
0
4096
-4096
8192
0
4096
-4096
8192
0
4096
-4096
8192
0
4096
-4096
8192
0
4096
-4096
8192
0
4096
-4096
8192
0
4096
-4096
8192
0
4096
-4096
8192
0
4096
-4096
8192
0
4096
-4096
8192
0
4096
-4096
8192
0
4096
-4096
8192
0
4096
-4096
8192
0
4096
-4096
8192
0
4096
-4096
8192
0
4096
-4096
8192
0
4096
-4096
8192
0
4096
-4096
8192
0
4096
-4096
8192
0
4096
-4096
8192
0
4096
-4096
8192
0
4096
-4096
8192
0
4096
-4096
8192
0
4096
-4096
8192
0
4096
-4096
8192
0
4096
-4096
8192
0
4096
-4096
8192
0
4096
-4096
8192
0
4096
-4096
8192
0
4096
-4096
8192
0
4096
-4096
8192
0
4096
-4096
8192
0
4096
-4096
8192
0
4096
-4096
8192
0
4096
-4096
8192
0
4096
-4096
8192
0
4096
-4096
8192
0
4096
-4096
8192
0
4096
-4096
8192
0
4096
-4096
8192
0
4096
-4096
8192
0
4096
-4096
8192
0
4096
-4096
8192
0
4096
-4096
8192
0
4096
-4096
8192
0
4096
-4096
8192
0
4096
-4096
8192
0
4096
-4096
8192
0
4096
-4096
8192
0
4096
-4096
8192
0
4096
-4096
8192
0
4096
-4096
8192
0
4096
-4096
8192
0
4096
-4096
8192
0
4096
-4096
8192
0
4096
-4096
8192
0
4096
-4096
8192
0
4096
-4096
8192
0
4096
-4096
8192
0
4096
-4096
8192
0
4096
-4096
8192
0
4096
-4096
8192
0
4096
-4096
8192
0
4096
-4096
8192
0
4096
-4096
8192
0
4096
-4096
8192
0
4096
-4096
8192
0
4096
-4096
8192
0
4096
-4096
8192
0
4096
-4096
8192
0
4096
-4096
8192
0
4096
-4096
8192
0
4096
-4096
8192
0
4096
-4096
8192
0
4096
-4096
8192
0
4096
-4096
8192
0
4096
-4096
8192
0
4096
-4096
8192
0
4096
-4096
8192
0
4096
-4096
8192
0
4096
-4096
8192
0
4096
-4096
8192
0
4096
-4096
8192
0
4096
-4096
8192
0
4096
-4096
8192
0
4096
-4096
8192
0
4096
-4096
8192
0
4096
-4096
8192
0
4096
-4096
8192
0
4096
-4096
8192
0
4096
-4096
8192
0
4096
-4096
8192
0
4096
-4096
8192
0
4096
-4096
8192
0
4096
-4096
8192
0
4096
-4096
8192
0
4096
-4096
8192
0
4096
-4096
8192
0
4096
-4096
8192
0
4096
-4096
8192
0
4096
-4096
8192
0
4096
-4096
8192
0
4096
-4096
8192
0
4096
-4096
8192
0
4096
-4096
8192
0
4096
-4096
8192
0
4096
-4096
8192
0
4096
-4096
8192
0
4096
-4096
8192
0
4096
-4096
8192
0
4096
-4096
8192
0
4096
-4096
8192
0
4096
-4096
8192
0
4096
-4096
8192
0
4096
-4096
8192
0
4096
-4096
8192
0
4096
-4096
8192
0
4096
-4096
8192
0
4096
-4096
8192
0
4096
-4096
8192
0
4096
-4096
8192
0
4096
-4096
8192
0
4096
-4096
8192
0
4096
-4096
8192
0
4096
-4096
8192
0
4096
-4096
8192
0
4096
-4096
8192
0
4096
-4096
8192
0
4096
-4096
8192
0
4096
-4096
8192
0
4096
-4096
8192
0
4096
-4096
8192
0
4096
-4096
8192
0
4096
-4096
8192
0
4096
-4096
8192
0
4096
-4096
8192
0
4096
-4096
8192
0
4096
-4096
8192
0
4096
-4096
8192
0
4096
-4096
8192
0
4096
-4096
8192
0
4096
-4096
8192
0
4096
-4096
8192
0
4096
-4096
8192
0
4096
-4096
8192
0
4096
-4096
8192
0
4096
-4096
8192
0
4096
-4096
8192
0
4096
-4096
8192
0
4096
-4096
8192
0
4096
-4096
8192
0
4096
-4096
8192
0
4096
-4096
8192
0
4096
-4096
8192
0
4096
-4096
8192
0
4096
-4096
8192
0
4096
-4096
8192
0
4096
-4096
8192
0
4096
-4096
8192
0
4096
-4096
8192
0
4096
-4096
8192
0
4096
-4096
8192
0
4096
-4096
8192
0
4096
-4096
8192
0
4096
-4096
8192
0
4096
-4096
8192
0
4096
-4096
8192
0
4096
-4096
8192
0
4096
-4096
8192
0
4096
-4096
8192
0
4096
-4096
8192
0
4096
-4096
8192
0
4096
-4096
8192
0
4096
-4096
8192
0
4096
-4096
8192
0
4096
-4096
8192
0
4096
-4096
8192
0
4096
-4096
8192
0
4096
-4096
8192
0
4096
-4096
8192
0
4096
-4096
8192
0
4096
-4096
8192
0
4096
-4096
8192
0
4096
-4096
8192
0
4096
-4096
8192
0
4096
-4096
8192
0
4096
-4096
8192
0
4096
-4096
8192
0
4096
-4096
8192
0
4096
-4096
8192
0
4096
-4096
8192
0
4096
-4096
8192
0
4096
-4096
8192
0
4096
-4096
8192
0
4096
-4096
8192
0
4096
-4096
8192
0
4096
-4096
8192
0
4096
-4096
8192
0
4096
-4096
8192
0
4096
-4096
8192
0
4096
-4096
8192
0
4096
-4096
8192
0
4096
-4096
8192
0
4096
-4096
8192
0
4096
-4096
8192
0
4096
-4096
8192
0
4096
-4096
8192
0
4096
-4096
8192
0
4096
-4096
8192
0
4096
-4096
8192
0
4096
-4096
8192
0
4096
-4096
8192
0
4096
-4096
8192
0
4096
-4096
8192
0
4096
-4096
8192
0
4096
-4096
8192
0
4096
-4096
8192
0
4096
-4096
8192
0
4096
-4096
8192
0
4096
-4096
8192
0
4096
-4096
8192
0
4096
-4096
8192
0
4096
-4096
8192
0
4096
-4096
8192
0
4096
-4096
8192
0
4096
-4096
8192
0
4096
-4096
8192
0
4096
-4096
8192
0
4096
-4096
8192
0
4096
-4096
8192
0
4096
-4096
8192
0
4096
-4096
8192
0
4096
-4096
8192
0
4096
-4096
8192
0
4096
-4096
8192
0
4096
-4096
8192
0
4096
-4096
8192
0
4096
-4096
8192
0
4096
-4096
8192
0
4096
-4096
8192
0
4096
-4096
8192
0
4096
-4096
8192
0
4096
-4096
8192
0
4096
-4096
8192
0
4096
-4096
8192
0
4096
-4096
8192
0
4096
-4096
8192
0
4096
-4096
8192
0
4096
-4096
8192
0
4096
-4096
8192
0
4096
-4096
8192
0
4096
-4096
8192
0
4096
-4096
8192
0
4096
-4096
8192
0
4096
-4096
8192
0
4096
-4096
8192
0
4096
-4096
8192
0
4096
-4096
8192
0
4096
-4096
8192
0
4096
-4096
8192
0
4096
-4096
8192
0
4096
-4096
8192
0
4096
-4096
8192
0
4096
-4096
8192
0
4096
-4096
8192
0
4096
-4096
8192
0
4096
-4096
8192
0
4096
-4096
8192
0
4096
-4096
8192
0
4096
-4096
8192
0
4096
-4096
8192
0
4096
-4096
8192
0
4096
-4096
8192
0
4096
-4096
8192
0
4096
-4096
8192
0
4096
-4096
8192
0
4096
-4096
8192
0
4096
-4096
8192
0
4096
-4096
8192
0
4096
-4096
8192
0
4096
-4096
8192
0
4096
-4096
8192
0
4096
-4096
8192
0
4096
-4096
8192
0
4096
-4096
8192
0
4096
-4096
8192
0
4096
-4096
8192
0
4096
-4096
8192
0
4096
-4096
8192
0
4096
-4096
8192
0
4096
-4096
8192
0
4096
-4096
8192
0
4096
-4096
8192
0
4096
-4096
8192
0
4096
-4096
8192
0
4096
-4096
8192
0
4096
-4096
8192
0
4096
-4096
8192
0
4096
-4096
8192
0
4096
-4096
8192
0
4096
-4096
8192
0
4096
-4096
8192
0
4096
-4096
8192
0
4096
-4096
8192
0
4096
-4096
8192
0
4096
-4096
8192
0
4096
-4096
8192
0
4096
-4096
8192
0
4096
-4096
8192
0
4096
-4096
8192
0
4096
-4096
8192
0
4096
-4096
8192
0
4096
-4096
8192
0
4096
-4096
8192
0
4096
-4096
8192
0
4096
-4096
8192
0
4096
-4096
8192
0
4096
-4096
8192
0
4096
-4096
8192
0
4096
-4096
8192
0
4096
-4096
8192
0
4096
-4096
8192
0
4096
-4096
8192
0
4096
-4096
8192
0
4096
-4096
8192
0
4096
-4096
8192
0
4096
-4096
8192
0
4096
-4096
8192
0
4096
-4096
8192
0
4096
-4096
8192
0
4096
-4096
8192
0
4096
-4096
8192
0
4096
-4096
8192
0
4096
-4096
8192
0
4096
-4096
8192
0
4096
-4096
8192
0
4096
-4096
8192
0
4096
-4096
8192
0
4096
-4096
8192
0
4096
-4096
8192
0
4096
-4096
8192
0
4096
-4096
8192
0
4096
-4096
8192
0
4096
-4096
8192
0
4096
-4096
8192
0
4096
-4096
8192
0
4096
-4096
8192
0
4096
-4096
8192
0
4096
-4096
8192
0
4096
-4096
8192
0
4096
-4096
8192
0
4096
-4096
8192
0
4096
-4096
8192
0
4096
-4096
8192
0
4096
-4096
8192
0
4096
-4096
8192
0
4096
-4096
8192
0
4096
-4096
8192
0
4096
-4096
8192
0
4096
-4096
8192
0
4096
-4096
8192
0
4096
-4096
8192
0
4096
-4096
8192
0
4096
-4096
8192
0
4096
-4096
8192
0
4096
-4096
8192
0
4096
-4096
8192
0
4096
-4096
8192
0
4096
-4096
8192
0
4096
-4096
8192
0
4096
-4096
8192
0
4096
-4096
8192
0
4096
-4096
8192
0
4096
-4096
8192
0
4096
-4096
8192
0
4096
-4096
8192
0
4096
-4096
8192
0
4096
-4096
8192
0
4096
-4096
8192
0
4096
-4096
8192
0
4096
-4096
8192
0
4096
-4096
8192
0
4096
-4096
8192
0
4096
-4096
8192
0
4096
-4096
8192
0
4096
-4096
8192
0
4096
-4096
8192
0
4096
-4096
8192
0
4096
-4096
8192
0
4096
-4096
8192
0
4096
-4096
8192
0
4096
-4096
8192
0
4096
-4096
8192
0
4096
-4096
8192
0
4096
-4096
8192
0
4096
-4096
8192
0
4096
-4096
8192
0
4096
-4096
8192
0
4096
-4096
8192
0
4096
-4096
8192
0
4096
-4096
8192
0
4096
-4096
8192
0
4096
-4096
8192
0
4096
-4096
8192
0
4096
-4096
8192
0
4096
-4096
8192
0
4096
-4096
8192
0
4096
-4096
8192
0
4096
-4096
8192
0
4096
-4096
8192
0
4096
-4096
8192
0
4096
-4096
8192
0
4096
-4096
8192
0
4096
-4096
8192
0
4096
-4096
8192
0
4096
-4096
8192
0
4096
-4096
8192
0
4096
-4096
8192
0
4096
-4096
8192
0
4096
-4096
8192
0
4096
-4096
8192
0
4096
-4096
8192
0
4096
-4096
8192
0
4096
-4096
8192
0
4096
-4096
8192
0
4096
-4096
8192
0
4096
-4096
8192
0
4096
-4096
8192
0
4096
-4096
8192
0
4096
-4096
8192
0
4096
-4096
8192
0
4096
-4096
8192
0
4096
-4096
8192
0
4096
-4096
8192
0
4096
-4096
8192
0
4096
-4096
8192
0
4096
-4096
8192
0
4096
-4096
8192
0
4096
-4096
8192
0
4096
-4096
8192
0
4096
-4096
8192
0
4096
-4096
8192
0
4096
-4096
8192
0
4096
-4096
8192
0
4096
-4096
8192
0
4096
-4096
8192
0
4096
-4096
8192
0
4096
-4096
8192
0
4096
-4096
8192
0
4096
-4096
8192
0
4096
-4096
8192
0
4096
-4096
8192
0
4096
-4096
8192
0
4096
-4096
8192
0
4096
-4096
8192
0
4096
-4096
8192
0
4096
-4096
8192
0
4096
-4096
8192
0
4096
-4096
8192
0
4096
-4096
8192
0
4096
-4096
8192
0
4096
-4096
8192
0
4096
-4096
8192
0
4096
-4096
8192
0
4096
-4096
8192
0
4096
-4096
8192
0
4096
-4096
8192
0
4096
-4096
8192
0
4096
-4096
8192
0
4096
-4096
8192
0
4096
-4096
8192
0
4096
-4096
8192
0
4096
-4096
8192
0
4096
-4096
8192
0
4096
-4096
8192
0
4096
-4096
8192
0
4096
-4096
8192
0
4096
-4096
8192
0
4096
-4096
8192
0
4096
-4096
8192
0
4096
-4096
8192
0
4096
-4096
8192
0
4096
-4096
8192
0
4096
-4096
8192
0
4096
-4096
8192
0
4096
-4096
8192
0
4096
-4096
8192
0
4096
-4096
8192
0
4096
-4096
8192
0
4096
-4096
8192
0
4096
-4096
8192
0
4096
-4096
8192
0
4096
-4096
8192
0
4096
-4096
8192
0
4096
-4096
8192
0
4096
-4096
8192
0
4096
-4096
8192
0
4096
-4096
8192
0
4096
-4096
8192
0
4096
-4096
8192
0
4096
-4096
8192
0
4096
-4096
8192
0
4096
-4096
8192
0
4096
-4096
8192
0
4096
-4096
8192
0
4096
-4096
8192
0
4096
-4096
8192
0
4096
-4096
8192
0
4096
-4096
8192
0
4096
-4096
8192
0
4096
-4096
8192
0
4096
-4096
8192
0
4096
-4096
8192
0
4096
-4096
8192
0
4096
-4096
8192
0
4096
-4096
8192
0
4096
-4096
8192
0
4096
-4096
8192
0
4096
-4096
8192
0
4096
-4096
8192
0
4096
-4096
8192
0
4096
-4096
8192
0
4096
-4096
8192
0
4096
-4096
8192
0
4096
-4096
8192
0
4096
-4096
8192
0
4096
-4096
8192
0
4096
-4096
8192
0
4096
-4096
8192
0
4096
-4096
8192
0
4096
-4096
8192
0
4096
-4096
8192
0
4096
-4096
8192
0
4096
-4096
8192
0
4096
-4096
8192
0
4096
-4096
8192
0
4096
-4096
8192
0
4096
-4096
8192
0
4096
-4096
8192
0
4096
-4096
8192
0
4096
-4096
8192
0
4096
-4096
8192
0
4096
-4096
8192
0
4096
-4096
8192
0
4096
-4096
8192
0
4096
-4096
8192
0
4096
-4096
8192
0
4096
-4096
8192
0
4096
-4096
8192
0
4096
-4096
8192
0
4096
-4096
8192
0
4096
-4096
8192
0
4096
-4096
8192
0
4096
-4096
8192
0
4096
-4096
8192
0
4096
-4096
8192
0
4096
-4096
8192
0
4096
-4096
8192
0
4096
-4096
8192
0
4096
-4096
8192
0
4096
-4096
8192
0
4096
-4096
8192
0
4096
-4096
8192
0
4096
-4096
8192
0
4096
-4096
8192
0
4096
-4096
8192
0
4096
-4096
8192
0
4096
-4096
8192
0
4096
-4096
8192
0
4096
-4096
8192
0
4096
-4096
8192
0
4096
-4096
8192
0
4096
-4096
8192
0
4096
-4096
8192
0
4096
-4096
8192
0
4096
-4096
8192
0
4096
-4096
8192
0
4096
-4096
8192
0
4096
-4096
8192
0
4096
-4096
8192
0
4096
-4096
8192
0
4096
-4096
8192
0
4096
-4096
8192
0
4096
-4096
8192
0
4096
-4096
8192
0
4096
-4096
8192
0
4096
-4096
8192
0
4096
-4096
8192
0
4096
-4096
8192
0
4096
-4096
8192
0
4096
-4096
8192
0
4096
-4096
8192
0
4096
-4096
8192
0
4096
-4096
8192
0
4096
-4096
8192
0
4096
-4096
8192
0
4096
-4096
8192
0
4096
-4096
8192
0
4096
-4096
8192
0
4096
-4096
8192
0
4096
-4096
8192
0
4096
-4096
8192
0
4096
-4096
8192
0
4096
-4096
8192
0
4096
-4096
8192
0
4096
-4096
8192
0
4096
-4096
8192
0
4096
-4096
8192
0
4096
-4096
8192
0
4096
-4096
8192
0
4096
-4096
8192
0
4096
-4096
8192
0
4096
-4096
8192
0
4096
-4096
8192
0
4096
-4096
8192
0
4096
-4096
8192
0
4096
-4096
8192
0
4096
-4096
8192
0
4096
-4096
8192
0
4096
-4096
8192
0
4096
-4096
8192
0
4096
-4096
8192
0
4096
-4096
8192
0
4096
-4096
8192
0
4096
-4096
8192
0
4096
-4096
8192
0
4096
-4096
8192
0
4096
-4096
8192
0
4096
-4096
8192
0
4096
-4096
8192
0
4096
-4096
8192
0
4096
-4096
8192
0
4096
-4096
8192
0
4096
-4096
8192
0
4096
-4096
8192
0
4096
-4096
8192
0
4096
-4096
8192
0
4096
-4096
8192
0
4096
-4096
8192
0
4096
-4096
8192
0
4096
-4096
8192
0
4096
-4096
8192
0
4096
-4096
8192
0
4096
-4096
8192
0
4096
-4096
8192
0
4096
-4096
8192
0
4096
-4096
8192
0
4096
-4096
8192
0
4096
-4096
8192
0
4096
-4096
8192
0
4096
-4096
8192
0
4096
-4096
8192
0
4096
-4096
8192
0
4096
-4096
8192
0
4096
-4096
8192
0
4096
-4096
8192
0
4096
-4096
8192
0
4096
-4096
8192
0
4096
-4096
8192
0
4096
-4096
8192
0
4096
-4096
8192
0
4096
-4096
8192
0
4096
-4096
8192
0
4096
-4096
8192
0
4096
-4096
8192
0
4096
-4096
8192
0
4096
-4096
8192
0
4096
-4096
8192
0
4096
-4096
8192
0
4096
-4096
8192
0
4096
-4096
8192
0
4096
-4096
8192
0
4096
-4096
8192
0
4096
-4096
8192
0
4096
-4096
8192
0
4096
-4096
8192
0
4096
-4096
8192
0
4096
-4096
8192
0
4096
-4096
8192
0
4096
-4096
8192
0
4096
-4096
8192
0
4096
-4096
8192
0
4096
-4096
8192
0
4096
-4096
8192
0
4096
-4096
8192
0
4096
-4096
8192
0
4096
-4096
8192
0
4096
-4096
8192
0
4096
-4096
8192
0
4096
-4096
8192
0
4096
-4096
8192
0
4096
-4096
8192
0
4096
-4096
8192
0
4096
-4096
8192
0
4096
-4096
8192
0
4096
-4096
8192
0
4096
-4096
8192
0
4096
-4096
8192
0
4096
-4096
8192
0
4096
-4096
8192
0
4096
-4096
8192
0
4096
-4096
8192
0
4096
-4096
8192
0
4096
-4096
8192
0
4096
-4096
8192
0
4096
-4096
8192
0
4096
-4096
8192
0
4096
-4096
8192
0
4096
-4096
8192
0
4096
-4096
8192
0
4096
-4096
8192
0
4096
-4096
8192
0
4096
-4096
8192
0
4096
-4096
8192
0
4096
-4096
8192
0
4096
-4096
8192
0
4096
-4096
8192
0
4096
-4096
8192
0
4096
-4096
8192
0
4096
-4096
8192
0
4096
-4096
8192
0
4096
-4096
8192
0
4096
-4096
8192
0
4096
-4096
8192
0
4096
-4096
8192
0
4096
-4096
8192
0
4096
-4096
8192
0
4096
-4096
8192
0
4096
-4096
8192
0
4096
-4096
8192
0
4096
-4096
8192
0
4096
-4096
8192
0
4096
-4096
8192
0
4096
-4096
8192
0
4096
-4096
8192
0
4096
-4096
8192
0
4096
-4096
8192
0
4096
-4096
8192
0
4096
-4096
8192
0
4096
-4096
8192
0
4096
-4096
8192
0
4096
-4096
8192
0
4096
-4096
8192
0
4096
-4096
8192
0
4096
-4096
8192
0
4096
-4096
8192
0
4096
-4096
8192
0
4096
-4096
8192
0
4096
-4096
8192
0
4096
-4096
8192
0
4096
-4096
8192
0
4096
-4096
8192
0
4096
-4096
8192
0
4096
-4096
8192
0
4096
-4096
8192
0
4096
-4096
8192
0
4096
-4096
8192
0
4096
-4096
8192
0
4096
-4096
8192
0
4096
-4096
8192
0
4096
-4096
8192
0
4096
-4096
8192
0
4096
-4096
8192
0
4096
-4096
8192
0
4096
-4096
8192
0
4096
-4096
8192
0
4096
-4096
8192
0
4096
-4096
8192
0
4096
-4096
8192
0
4096
-4096
8192
0
4096
-4096
8192
0
4096
-4096
8192
0
4096
-4096
8192
0
4096
-4096
8192
0
4096
-4096
8192
0
4096
-4096
8192
0
4096
-4096
8192
0
4096
-4096
8192
0
4096
-4096
8192
0
4096
-4096
8192
0
4096
-4096
8192
0
4096
-4096
8192
0
4096
-4096
8192
0
4096
-4096
8192
0
4096
-4096
8192
0
4096
-4096
8192
0
4096
-4096
8192
0
4096
-4096
8192
0
4096
-4096
8192
0
4096
-4096
8192
0
4096
-4096
8192
0
4096
-4096
8192
0
4096
-4096
8192
0
4096
-4096
8192
0
4096
-4096
8192
0
4096
-4096
8192
0
4096
-4096
8192
0
4096
-4096
8192
0
4096
-4096
8192
0
4096
-4096
8192
0
4096
-4096
8192
0
4096
-4096
8192
0
4096
-4096
8192
0
4096
-4096
8192
0
4096
-4096
8192
0
4096
-4096
8192
0
4096
-4096
8192
0
4096
-4096
8192
0
4096
-4096
8192
0
4096
-4096
8192
0
4096
-4096
8192
0
4096
-4096
8192
0
4096
-4096
8192
0
4096
-4096
8192
0
4096
-4096
8192
0
4096
-4096
8192
0
4096
-4096
8192
0
4096
-4096
8192
0
4096
-4096
8192
0
4096
-4096
8192
0
4096
-4096
8192
0
4096
-4096
8192
0
4096
-4096
8192
0
4096
-4096
8192
0
4096
-4096
8192
0
4096
-4096
8192
0
4096
-4096
8192
0
4096
-4096
8192
0
4096
-4096
8192
0
4096
-4096
8192
0
4096
-4096
8192
0
4096
-4096
8192
0
4096
-4096
8192
0
4096
-4096
8192
0
4096
-4096
8192
0
4096
-4096
8192
0
4096
-4096
8192
0
4096
-4096
8192
0
4096
-4096
8192
0
4096
-4096
8192
0
4096
-4096
8192
0
4096
-4096
8192
0
4096
-4096
8192
0
4096
-4096
8192
0
4096
-4096
8192
0
4096
-4096
8192
0
4096
-4096
8192
0
4096
-4096
8192
0
4096
-4096
8192
0
4096
-4096
8192
0
4096
-4096
8192
0
4096
-4096
8192
0
4096
-4096
8192
0
4096
-4096
8192
0
4096
-4096
8192
0
4096
-4096
8192
0
4096
-4096
8192
0
4096
-4096
8192
0
4096
-4096
8192
0
4096
-4096
8192
0
4096
-4096
8192
0
4096
-4096
8192
0
4096
-4096
8192
0
4096
-4096
8192
0
4096
-4096
8192
0
4096
-4096
8192
0
4096
-4096
8192
0
4096
-4096
8192
0
4096
-4096
8192
0
4096
-4096
8192
0
4096
-4096
8192
0
4096
-4096
8192
0
4096
-4096
8192
0
4096
-4096
8192
0
4096
-4096
8192
0
4096
-4096
8192
0
4096
-4096
8192
0
4096
-4096
8192
0
4096
-4096
8192
0
4096
-4096
8192
0
4096
-4096
8192
0
4096
-4096
8192
0
4096
-4096
8192
0
4096
-4096
8192
0
4096
-4096
8192
0
4096
-4096
8192
0
4096
-4096
8192
0
4096
-4096
8192
0
4096
-4096
8192
0
4096
-4096
8192
0
4096
-4096
8192
0
4096
-4096
8192
0
4096
-4096
8192
0
4096
-4096
8192
0
4096
-4096
8192
0
4096
-4096
8192
0
4096
-4096
8192
0
4096
-4096
8192
0
4096
-4096
8192
0
4096
-4096
8192
0
4096
-4096
8192
0
4096
-4096
8192
0
4096
-4096
8192
0
4096
-4096
8192
0
4096
-4096
8192
0
4096
-4096
8192
0
4096
-4096
8192
0
4096
-4096
8192
0
4096
-4096
8192
0
4096
-4096
8192
0
4096
-4096
8192
0
4096
-4096
8192
0
4096
-4096
8192
0
4096
-4096
8192
0
4096
-4096
8192
0
4096
-4096
8192
0
4096
-4096
8192
0
4096
-4096
8192
0
4096
-4096
8192
0
4096
-4096
8192
0
4096
-4096
8192
0
4096
-4096
8192
0
4096
-4096
8192
0
4096
-4096
8192
0
4096
-4096
8192
0
4096
-4096
8192
0
4096
-4096
8192
0
4096
-4096
8192
0
4096
-4096
8192
0
4096
-4096
8192
0
4096
-4096
8192
0
4096
-4096
8192
0
4096
-4096
8192
0
4096
-4096
8192
0
4096
-4096
8192
0
4096
-4096
8192
0
4096
-4096
8192
0
4096
-4096
8192
0
4096
-4096
8192
0
4096
-4096
8192
0
4096
-4096
8192
0
4096
-4096
8192
0
4096
-4096
8192
0
4096
-4096
8192
0
4096
-4096
8192
0
4096
-4096
8192
0
4096
-4096
8192
0
4096
-4096
8192
0
4096
-4096
8192
0
4096
-4096
8192
0
4096
-4096
8192
0
4096
-4096
8192
0
4096
-4096
8192
0
4096
-4096
8192
0
4096
-4096
8192
0
4096
-4096
8192
0
4096
-4096
8192
0
4096
-4096
8192
0
4096
-4096
8192
0
4096
-4096
8192
0
4096
-4096
8192
0
4096
-4096
8192
0
4096
-4096
8192
0
4096
-4096
8192
0
4096
-4096
8192
0
4096
-4096
8192
0
4096
-4096
8192
0
4096
-4096
8192
0
4096
-4096
8192
0
4096
-4096
8192
0
4096
-4096
8192
0
4096
-4096
8192
0
4096
-4096
8192
0
4096
-4096
8192
0
4096
-4096
8192
0
4096
-4096
8192
0
4096
-4096
8192
0
4096
-4096
8192
0
4096
-4096
8192
0
4096
-4096
8192
0
4096
-4096
8192
0
4096
-4096
8192
0
4096
-4096
8192
0
4096
-4096
8192
0
4096
-4096
8192
0
4096
-4096
8192
0
4096
-4096
8192
0
4096
-4096
8192
0
4096
-4096
8192
0
4096
-4096
8192
0
4096
-4096
8192
0
4096
-4096
8192
0
4096
-4096
8192
0
4096
-4096
8192
0
4096
-4096
8192
0
4096
-4096
8192
0
4096
-4096
8192
0
4096
-4096
8192
0
4096
-4096
8192
0
4096
-4096
8192
0
4096
-4096
8192
0
4096
-4096
8192
0
4096
-4096
8192
0
4096
-4096
8192
0
4096
-4096
8192
0
4096
-4096
8192
0
4096
-4096
8192
0
4096
-4096
8192
0
4096
-4096
8192
0
4096
-4096
8192
0
4096
-4096
8192
0
4096
-4096
8192
0
4096
-4096
8192
0
4096
-4096
8192
0
4096
-4096
8192
0
4096
-4096
8192
0
4096
-4096
8192
0
4096
-4096
8192
0
4096
-4096
8192
0
4096
-4096
8192
0
4096
-4096
8192
0
4096
-4096
8192
0
4096
-4096
8192
0
4096
-4096
8192
0
4096
-4096
8192
0
4096
-4096
8192
0
4096
-4096
8192
0
4096
-4096
8192
0
4096
-4096
8192
0
4096
-4096
8192
0
4096
-4096
8192
0
4096
-4096
8192
0
4096
-4096
8192
0
4096
-4096
8192
0
4096
-4096
8192
0
4096
-4096
8192
0
4096
-4096
8192
0
4096
-4096
8192
0
4096
-4096
8192
0
4096
-4096
8192
0
4096
-4096
8192
0
4096
-4096
8192
0
4096
-4096
8192
0
4096
-4096
8192
0
4096
-4096
8192
0
4096
-4096
8192
0
4096
-4096
8192
0
4096
-4096
8192
0
4096
-4096
8192
0
4096
-4096
8192
0
4096
-4096
8192
0
4096
-4096
8192
0
4096
-4096
8192
0
4096
-4096
8192
0
4096
-4096
8192
0
4096
-4096
8192
0
4096
-4096
8192
0
4096
-4096
8192
0
4096
-4096
8192
0
4096
-4096
8192
0
4096
-4096
8192
0
4096
-4096
8192
0
4096
-4096
8192
0
4096
-4096
8192
0
4096
-4096
8192
0
4096
-4096
8192
0
4096
-4096
8192
0
4096
-4096
8192
0
4096
-4096
8192
0
4096
-4096
8192
0
4096
-4096
8192
0
4096
-4096
8192
0
4096
-4096
8192
0
4096
-4096
8192
0
4096
-4096
8192
0
4096
-4096
8192
0
4096
-4096
8192
0
4096
-4096
8192
0
4096
-4096
8192
0
4096
-4096
8192
0
4096
-4096
8192
0
4096
-4096
8192
0
4096
-4096
8192
0
4096
-4096
8192
0
4096
-4096
8192
0
4096
-4096
8192
0
4096
-4096
8192
0
4096
-4096
8192
0
4096
-4096
8192
0
4096
-4096
8192
0
4096
-4096
8192
0
4096
-4096
8192
0
4096
-4096
8192
0
4096
-4096
8192
0
4096
-4096
8192
0
4096
-4096
8192
0
4096
-4096
8192
0
4096
-4096
8192
0
4096
-4096
8192
0
4096
-4096
8192
0
4096
-4096
8192
0
4096
-4096
8192
0
4096
-4096
8192
0
4096
-4096
8192
0
4096
-4096
8192
0
4096
-4096
8192
0
4096
-4096
8192
0
4096
-4096
8192
0
4096
-4096
8192
0
4096
-4096
8192
0
4096
-4096
8192
0
4096
-4096
8192
0
4096
-4096
8192
0
4096
-4096
8192
0
4096
-4096
8192
0
4096
-4096
8192
0
4096
-4096
8192
0
4096
-4096
8192
0
4096
-4096
8192
0
4096
-4096
8192
0
4096
-4096
8192
0
4096
-4096
8192
0
4096
-4096
8192
0
4096
-4096
8192
0
4096
-4096
8192
0
4096
-4096
8192
0
4096
-4096
8192
0
4096
-4096
8192
0
4096
-4096
8192
0
4096
-4096
8192
0
4096
-4096
8192
0
4096
-4096
8192
0
4096
-4096
8192
0
4096
-4096
8192
0
4096
-4096
8192
0
4096
-4096
8192
0
4096
-4096
8192
0
4096
-4096
8192
0
4096
-4096
8192
0
4096
-4096
8192
0
4096
-4096
8192
0
4096
-4096
8192
0
4096
-4096
8192
0
4096
-4096
8192
0
4096
-4096
8192
0
4096
-4096
8192
0
4096
-4096
8192
0
4096
-4096
8192
0
4096
-4096
8192
0
4096
-4096
8192
0
4096
-4096
8192
0
4096
-4096
8192
0
4096
-4096
8192
0
4096
-4096
8192
0
4096
-4096
8192
0
4096
-4096
8192
0
4096
-4096
8192
0
4096
-4096
8192
0
4096
-4096
8192
0
4096
-4096
8192
0
4096
-4096
8192
0
4096
-4096
8192
0
4096
-4096
8192
0
4096
-4096
8192
0
4096
-4096
8192
0
4096
-4096
8192
0
4096
-4096
8192
0
4096
-4096
8192
0
4096
-4096
8192
0
4096
-4096
8192
0
4096
-4096
8192
0
4096
-4096
8192
0
4096
-4096
8192
0
4096
-4096
8192
0
4096
-4096
8192
0
4096
-4096
8192
0
4096
-4096
8192
0
4096
-4096
8192
0
4096
-4096
8192
0
4096
-4096
8192
0
4096
-4096
8192
0
4096
-4096
8192
0
4096
-4096
8192
0
4096
-4096
8192
0
4096
-4096
8192
0
4096
-4096
8192
0
4096
-4096
8192
0
4096
-4096
8192
0
4096
-4096
8192
0
4096
-4096
8192
0
4096
-4096
8192
0
4096
-4096
8192
0
4096
-4096
8192
0
4096
-4096
8192
0
4096
-4096
8192
0
4096
-4096
8192
0
4096
-4096
8192
0
4096
-4096
8192
0
4096
-4096
8192
0
4096
-4096
8192
0
4096
-4096
8192
0
4096
-4096
8192
0
4096
-4096
8192
0
4096
-4096
8192
0
4096
-4096
8192
0
4096
-4096
8192
0
4096
-4096
8192
0
4096
-4096
8192
0
4096
-4096
8192
0
4096
-4096
8192
0
4096
-4096
8192
0
4096
-4096
8192
0
4096
-4096
8192
0
4096
-4096
8192
0
4096
-4096
8192
0
4096
-4096
8192
0
4096
-4096
8192
0
4096
-4096
8192
0
4096
-4096
8192
0
4096
-4096
8192
0
4096
-4096
8192
0
4096
-4096
8192
0
4096
-4096
8192
0
4096
-4096
8192
0
4096
-4096
8192
0
4096
-4096
8192
0
4096
-4096
8192
0
4096
-4096
8192
0
4096
-4096
8192
0
4096
-4096
8192
0
4096
-4096
8192
0
4096
-4096
8192
0
4096
-4096
8192
0
4096
-4096
8192
0
4096
-4096
8192
0
4096
-4096
8192
0
4096
-4096
8192
0
4096
-4096
8192
0
4096
-4096
8192
0
4096
-4096
8192
0
4096
-4096
8192
0
4096
-4096
8192
0
4096
-4096
8192
0
4096
-4096
8192
0
4096
-4096
8192
0
4096
-4096
8192
0
4096
-4096
8192
0
4096
-4096
8192
0
4096
-4096
8192
0
4096
-4096
8192
0
4096
-4096
8192
0
4096
-4096
8192
0
4096
-4096
8192
0
4096
-4096
8192
0
4096
-4096
8192
0
4096
-4096
8192
0
4096
-4096
8192
0
4096
-4096
8192
0
4096
-4096
8192
0
4096
-4096
8192
0
4096
-4096
8192
0
4096
-4096
8192
0
4096
-4096
8192
0
4096
-4096
8192
0
4096
-4096
8192
0
4096
-4096
8192
0
4096
-4096
8192
0
4096
-4096
8192
0
4096
-4096
8192
0
4096
-4096
8192
0
4096
-4096
8192
0
4096
-4096
8192
0
4096
-4096
8192
0
4096
-4096
8192
0
4096
-4096
8192
0
4096
-4096
8192
0
4096
-4096
8192
0
4096
-4096
8192
0
4096
-4096
8192
0
4096
-4096
8192
0
4096
-4096
8192
0
4096
-4096
8192
0
4096
-4096
8192
0
4096
-4096
8192
0
4096
-4096
8192
0
4096
-4096
8192
0
4096
-4096
8192
0
4096
-4096
8192
0
4096
-4096
8192
0
4096
-4096
8192
0
4096
-4096
8192
0
4096
-4096
8192
0
4096
-4096
8192
0
4096
-4096
8192
0
4096
-4096
8192
0
4096
-4096
8192
0
4096
-4096
8192
0
4096
-4096
8192
0
4096
-4096
8192
0
4096
-4096
8192
0
4096
-4096
8192
0
4096
-4096
8192
0
4096
-4096
8192
0
4096
-4096
8192
0
4096
-4096
8192
0
4096
-4096
8192
0
4096
-4096
8192
0
4096
-4096
8192
0
4096
-4096
8192
0
4096
-4096
8192
0
4096
-4096
8192
0
4096
-4096
8192
0
4096
-4096
8192
0
4096
-4096
8192
0
4096
-4096
8192
0
4096
-4096
8192
0
4096
-4096
8192
0
4096
-4096
8192
0
4096
-4096
8192
0
4096
-4096
8192
0
4096
-4096
8192
0
4096
-4096
8192
0
4096
-4096
8192
0
4096
-4096
8192
0
4096
-4096
8192
0
4096
-4096
8192
0
4096
-4096
8192
0
4096
-4096
8192
0
4096
-4096
8192
0
4096
-4096
8192
0
4096
-4096
8192
0
4096
-4096
8192
0
4096
-4096
8192
0
4096
-4096
8192
0
4096
-4096
8192
0
4096
-4096
8192
0
4096
-4096
8192
0
4096
-4096
8192
0
4096
-4096
8192
0
4096
-4096
8192
0
4096
-4096
8192
0
4096
-4096
8192
0
4096
-4096
8192
0
4096
-4096
8192
0
4096
-4096
8192
0
4096
-4096
8192
0
4096
-4096
8192
0
4096
-4096
8192
0
4096
-4096
8192
0
4096
-4096
8192
0
4096
-4096
8192
0
4096
-4096
8192
0
4096
-4096
8192
0
4096
-4096
8192
0
4096
-4096
8192
0
4096
-4096
8192
0
4096
-4096
8192
0
4096
-4096
8192
0
4096
-4096
8192
0
4096
-4096
8192
0
4096
-4096
8192
0
4096
-4096
8192
0
4096
-4096
8192
0
4096
-4096
8192
0
4096
-4096
8192
0
4096
-4096
8192
0
4096
-4096
8192
0
4096
-4096
8192
0
4096
-4096
8192
0
4096
-4096
8192
0
4096
-4096
8192
0
4096
-4096
8192
0
4096
-4096
8192
0
4096
-4096
8192
0
4096
-4096
8192
0
4096
-4096
8192
0
4096
-4096
8192
0
4096
-4096
8192
0
4096
-4096
8192
0
4096
-4096
8192
0
4096
-4096
8192
0
4096
-4096
8192
0
4096
-4096
8192
0
4096
-4096
8192
0
4096
-4096
8192
0
4096
-4096
8192
0
4096
-4096
8192
0
4096
-4096
8192
0
4096
-4096
8192
0
4096
-4096
8192
0
4096
-4096
8192
0
4096
-4096
8192
0
4096
-4096
8192
0
4096
-4096
8192
0
4096
-4096
8192
0
4096
-4096
8192
0
4096
-4096
8192
0
4096
-4096
8192
0
4096
-4096
8192
0
4096
-4096
8192
0
4096
-4096
8192
0
4096
-4096
8192
0
4096
-4096
8192
0
4096
-4096
8192
0
4096
-4096
8192
0
4096
-4096
8192
0
4096
-4096
8192
0
4096
-4096
8192
0
4096
-4096
8192
0
4096
-4096
8192
0
4096
-4096
8192
0
4096
-4096
8192
0
4096
-4096
8192
0
4096
-4096
8192
0
4096
-4096
8192
0
4096
-4096
8192
0
4096
-4096
8192
0
4096
-4096
8192
0
4096
-4096
8192
0
4096
-4096
8192
0
4096
-4096
8192
0
4096
-4096
8192
0
4096
-4096
8192
0
4096
-4096
8192
0
4096
-4096
8192
0
4096
-4096
8192
0
4096
-4096
8192
0
4096
-4096
8192
0
4096
-4096
8192
0
4096
-4096
8192
0
4096
-4096
8192
0
4096
-4096
8192
0
4096
-4096
8192
0
4096
-4096
8192
0
4096
-4096
8192
0
4096
-4096
8192
0
4096
-4096
8192
0
4096
-4096
8192
0
4096
-4096
8192
0
4096
-4096
8192
0
4096
-4096
8192
0
4096
-4096
8192
0
4096
-4096
8192
0
4096
-4096
8192
0
4096
-4096
8192
0
4096
-4096
8192
0
4096
-4096
8192
0
4096
-4096
8192
0
4096
-4096
8192
0
4096
-4096
8192
0
4096
-4096
8192
0
4096
-4096
8192
0
4096
-4096
8192
0
4096
-4096
8192
0
4096
-4096
8192
0
4096
-4096
8192
0
4096
-4096
8192
0
4096
-4096
8192
0
4096
-4096
8192
0
4096
-4096
8192
0
4096
-4096
8192
0
4096
-4096
8192
0
4096
-4096
8192
0
4096
-4096
8192
0
4096
-4096
8192
0
4096
-4096
8192
0
4096
-4096
8192
0
4096
-4096
8192
0
4096
-4096
8192
0
4096
-4096
8192
0
4096
-4096
8192
0
4096
-4096
8192
0
4096
-4096
8192
0
4096
-4096
8192
0
4096
-4096
8192
0
4096
-4096
8192
0
4096
-4096
8192
0
4096
-4096
8192
0
4096
-4096
8192
0
4096
-4096
8192
0
4096
-4096
8192
0
4096
-4096
8192
0
4096
-4096
8192
0
4096
-4096
8192
0
4096
-4096
8192
0
4096
-4096
8192
0
4096
-4096
8192
0
4096
-4096
8192
0
4096
-4096
8192
0
4096
-4096
8192
0
4096
-4096
8192
0
4096
-4096
8192
0
4096
-4096
8192
0
4096
-4096
8192
0
4096
-4096
8192
0
4096
-4096
8192
0
4096
-4096
8192
0
4096
-4096
8192
0
4096
-4096
8192
0
4096
-4096
8192
0
4096
-4096
8192
0
4096
-4096
8192
0
4096
-4096
8192
0
4096
-4096
8192
0
4096
-4096
8192
0
4096
-4096
8192
0
4096
-4096
8192
0
4096
-4096
8192
0
4096
-4096
8192
0
4096
-4096
8192
0
4096
-4096
8192
0
4096
-4096
8192
0
4096
-4096
8192
0
4096
-4096
8192
0
4096
-4096
8192
0
4096
-4096
8192
0
4096
-4096
8192
0
4096
-4096
8192
0
4096
-4096
8192
0
4096
-4096
8192
0
4096
-4096
8192
0
4096
-4096
8192
0
4096
-4096
8192
0
4096
-4096
8192
0
4096
-4096
8192
0
4096
-4096
8192
0
4096
-4096
8192
0
4096
-4096
8192
0
4096
-4096
8192
0
4096
-4096
8192
0
4096
-4096
8192
0
4096
-4096
8192
0
4096
-4096
8192
0
4096
-4096
8192
0
4096
-4096
8192
0
4096
-4096
8192
0
4096
-4096
8192
0
4096
-4096
8192
0
4096
-4096
8192
0
4096
-4096
8192
0
4096
-4096
8192
0
4096
-4096
8192
0
4096
-4096
8192
0
4096
-4096
8192
0
4096
-4096
8192
0
4096
-4096
8192
0
4096
-4096
8192
0
4096
-4096
8192
0
4096
-4096
8192
0
4096
-4096
8192
0
4096
-4096
8192
0
4096
-4096
8192
0
4096
-4096
8192
0
4096
-4096
8192
0
4096
-4096
8192
0
4096
-4096
8192
0
4096
-4096
8192
0
4096
-4096
8192
0
4096
-4096
8192
0
4096
-4096
8192
0
4096
-4096
8192
0
4096
-4096
8192
0
4096
-4096
8192
0
4096
-4096
8192
0
4096
-4096
8192
0
4096
-4096
8192
0
4096
-4096
8192
0
4096
-4096
8192
0
4096
-4096
8192
0
4096
-4096
8192
0
4096
-4096
8192
0
4096
-4096
8192
0
4096
-4096
8192
0
4096
-4096
8192
0
4096
-4096
8192
0
4096
-4096
8192
0
4096
-4096
8192
0
4096
-4096
8192
0
4096
-4096
8192
0
4096
-4096
8192
0
4096
-4096
8192
0
4096
-4096
8192
0
4096
-4096
8192
0
4096
-4096
8192
0
4096
-4096
8192
0
4096
-4096
8192
0
4096
-4096
8192
0
4096
-4096
8192
0
4096
-4096
8192
0
4096
-4096
8192
0
4096
-4096
8192
0
4096
-4096
8192
0
4096
-4096
8192
0
4096
-4096
8192
0
4096
-4096
8192
0
4096
-4096
8192
0
4096
-4096
8192
0
4096
-4096
8192
0
4096
-4096
8192
0
4096
-4096
8192
0
4096
-4096
8192
0
4096
-4096
8192
0
4096
-4096
8192
0
4096
-4096
8192
0
4096
-4096
8192
0
4096
-4096
8192
0
4096
-4096
8192
0
4096
-4096
8192
0
4096
-4096
8192
0
4096
-4096
8192
0
4096
-4096
8192
0
4096
-4096
8192
0
4096
-4096
8192
0
4096
-4096
8192
0
4096
-4096
8192
0
4096
-4096
8192
0
4096
-4096
8192
0
4096
-4096
8192
0
4096
-4096
8192
0
4096
-4096
8192
0
4096
-4096
8192
0
4096
-4096
8192
0
4096
-4096
8192
0
4096
-4096
8192
0
4096
-4096
8192
0
4096
-4096
8192
0
4096
-4096
8192
0
4096
-4096
8192
0
4096
-4096
8192
0
4096
-4096
8192
0
4096
-4096
8192
0
4096
-4096
8192
0
4096
-4096
8192
0
4096
-4096
8192
0
4096
-4096
8192
0
4096
-4096
8192
0
4096
-4096
8192
0
4096
-4096
8192
0
4096
-4096
8192
0
4096
-4096
8192
0
4096
-4096
8192
0
4096
-4096
8192
0
4096
-4096
8192
0
4096
-4096
8192
0
4096
-4096
8192
0
4096
-4096
8192
0
4096
-4096
8192
0
4096
-4096
8192
0
4096
-4096
8192
0
4096
-4096
8192
0
4096
-4096
8192
0
4096
-4096
8192
0
4096
-4096
8192
0
4096
-4096
8192
0
4096
-4096
8192
0
4096
-4096
8192
0
4096
-4096
8192
0
4096
-4096
8192
0
4096
-4096
8192
0
4096
-4096
8192
0
4096
-4096
8192
0
4096
-4096
8192
0
4096
-4096
8192
0
4096
-4096
8192
0
4096
-4096
8192
0
4096
-4096
8192
0
4096
-4096
8192
0
4096
-4096
8192
0
4096
-4096
8192
0
4096
-4096
8192
0
4096
-4096
8192
0
4096
-4096
8192
0
4096
-4096
8192
0
4096
-4096
8192
0
4096
-4096
8192
0
4096
-4096
8192
0
4096
-4096
8192
0
4096
-4096
8192
0
4096
-4096
8192
0
4096
-4096
8192
0
4096
-4096
8192
0
4096
-4096
8192
0
4096
-4096
8192
0
4096
-4096
8192
0
4096
-4096
8192
0
4096
-4096
8192
0
4096
-4096
8192
0
4096
-4096
8192
0
4096
-4096
8192
0
4096
-4096
8192
0
4096
-4096
8192
0
4096
-4096
8192
0
4096
-4096
8192
0
4096
-4096
8192
0
4096
-4096
8192
0
4096
-4096
8192
0
4096
-4096
8192
0
4096
-4096
8192
0
4096
-4096
8192
0
4096
-4096
8192
0
4096
-4096
8192
0
4096
-4096
8192
0
4096
-4096
8192
0
4096
-4096
8192
0
4096
-4096
8192
0
4096
-4096
8192
0
4096
-4096
8192
0
4096
-4096
8192
0
4096
-4096
8192
0
4096
-4096
8192
0
4096
-4096
8192
0
4096
-4096
8192
0
4096
-4096
8192
0
4096
-4096
8192
0
4096
-4096
8192
0
4096
-4096
8192
0
4096
-4096
8192
0
4096
-4096
8192
0
4096
-4096
8192
0
4096
-4096
8192
0
4096
-4096
8192
0
4096
-4096
8192
0
4096
-4096
8192
0
4096
-4096
8192
0
4096
-4096
8192
0
4096
-4096
8192
0
4096
-4096
8192
0
4096
-4096
8192
0
4096
-4096
8192
0
4096
-4096
8192
0
4096
-4096
8192
0
4096
-4096
8192
0
4096
-4096
8192
0
4096
-4096
8192
0
4096
-4096
8192
0
4096
-4096
8192
0
4096
-4096
8192
0
4096
-4096
8192
0
4096
-4096
8192
0
4096
-4096
8192
0
4096
-4096
8192
0
4096
-4096
8192
0
4096
-4096
8192
0
4096
-4096
8192
0
4096
-4096
8192
0
4096
-4096
8192
0
4096
-4096
8192
0
4096
-4096
8192
0
4096
-4096
8192
0
4096
-4096
8192
0
4096
-4096
8192
0
4096
-4096
8192
0
4096
-4096
8192
0
4096
-4096
8192
0
4096
-4096
8192
0
4096
-4096
8192
0
4096
-4096
8192
0
4096
-4096
8192
0
4096
-4096
8192
0
4096
-4096
8192
0
4096
-4096
8192
0
4096
-4096
8192
0
4096
-4096
8192
0
4096
-4096
8192
0
4096
-4096
8192
0
4096
-4096
8192
0
4096
-4096
8192
0
4096
-4096
8192
0
4096
-4096
8192
0
4096
-4096
8192
0
4096
-4096
8192
0
4096
-4096
8192
0
4096
-4096
8192
0
4096
-4096
8192
0
4096
-4096
8192
0
4096
-4096
8192
0
4096
-4096
8192
0
4096
-4096
8192
0
4096
-4096
8192
0
4096
-4096
8192
0
4096
-4096
8192
0
4096
-4096
8192
0
4096
-4096
8192
0
4096
-4096
8192
0
4096
-4096
8192
0
4096
-4096
8192
0
4096
-4096
8192
0
4096
-4096
8192
0
4096
-4096
8192
0
4096
-4096
8192
0
4096
-4096
8192
0
4096
-4096
8192
0
4096
-4096
8192
0
4096
-4096
8192
0
4096
-4096
8192
0
4096
-4096
8192
0
4096
-4096
8192
0
4096
-4096
8192
0
4096
-4096
8192
0
4096
-4096
8192
0
4096
-4096
8192
0
4096
-4096
8192
0
4096
-4096
8192
0
4096
-4096
8192
0
4096
-4096
8192
0
4096
-4096
8192
0
4096
-4096
8192
0
4096
-4096
8192
0
4096
-4096
8192
0
4096
-4096
8192
0
4096
-4096
8192
0
4096
-4096
8192
0
4096
-4096
8192
0
4096
-4096
8192
0
4096
-4096
8192
0
4096
-4096
8192
0
4096
-4096
8192
0
4096
-4096
8192
0
4096
-4096
8192
0
4096
-4096
8192
0
4096
-4096
8192
0
4096
-4096
8192
0
4096
-4096
8192
0
4096
-4096
8192
0
4096
-4096
8192
0
4096
-4096
8192
0
4096
-4096
8192
0
4096
-4096
8192
0
4096
-4096
8192
0
4096
-4096
8192
0
4096
-4096
8192
0
4096
-4096
8192
0
4096
-4096
8192
0
4096
-4096
8192
0
4096
-4096
8192
0
4096
-4096
8192
0
4096
-4096
8192
0
4096
-4096
8192
0
4096
-4096
8192
0
4096
-4096
8192
0
4096
-4096
8192
0
4096
-4096
8192
0
4096
-4096
8192
0
4096
-4096
8192
0
4096
-4096
8192
0
4096
-4096
8192
0
4096
-4096
8192
0
4096
-4096
8192
0
4096
-4096
8192
0
4096
-4096
8192
0
4096
-4096
8192
0
4096
-4096
8192
0
4096
-4096
8192
0
4096
-4096
8192
0
4096
-4096
8192
0
4096
-4096
8192
0
4096
-4096
8192
0
4096
-4096
8192
0
4096
-4096
8192
0
4096
-4096
8192
0
4096
-4096
8192
0
4096
-4096
8192
0
4096
-4096
8192
0
4096
-4096
8192
0
4096
-4096
8192
0
4096
-4096
8192
0
4096
-4096
8192
0
4096
-4096
8192
0
4096
-4096
8192
0
4096
-4096
8192
0
4096
-4096
8192
0
4096
-4096
8192
0
4096
-4096
8192
0
4096
-4096
8192
0
4096
-4096
8192
0
4096
-4096
8192
0
4096
-4096
8192
0
4096
-4096
8192
0
4096
-4096
8192
0
4096
-4096
8192
0
4096
-4096
8192
0
4096
-4096
8192
0
4096
-4096
8192
0
4096
-4096
8192
0
4096
-4096
8192
0
4096
-4096
8192
0
4096
-4096
8192
0
4096
-4096
8192
0
4096
-4096
8192
0
4096
-4096
8192
0
4096
-4096
8192
0
4096
-4096
8192
0
4096
-4096
8192
0
4096
-4096
8192
0
4096
-4096
8192
0
4096
-4096
8192
0
4096
-4096
8192
0
4096
-4096
8192
0
4096
-4096
8192
0
4096
-4096
8192
0
4096
-4096
8192
0
4096
-4096
8192
0
4096
-4096
8192
0
4096
-4096
8192
0
4096
-4096
8192
0
4096
-4096
8192
0
4096
-4096
8192
0
4096
-4096
8192
0
4096
-4096
8192
0
4096
-4096
8192
0
4096
-4096
8192
0
4096
-4096
8192
0
4096
-4096
8192
0
4096
-4096
8192
0
4096
-4096
8192
0
4096
-4096
8192
0
4096
-4096
8192
0
4096
-4096
8192
0
4096
-4096
8192
0
4096
-4096
8192
0
4096
-4096
8192
0
4096
-4096
8192
0
4096
-4096
8192
0
4096
-4096
8192
0
4096
-4096
8192
0
4096
-4096
8192
0
4096
-4096
8192
0
4096
-4096
8192
0
4096
-4096
8192
0
4096
-4096
8192
0
4096
-4096
8192
0
4096
-4096
8192
0
4096
-4096
8192
0
4096
-4096
8192
0
4096
-4096
8192
0
4096
-4096
8192
0
4096
-4096
8192
0
4096
-4096
8192
0
4096
-4096
8192
0
4096
-4096
8192
0
4096
-4096
8192
0
4096
-4096
8192
0
4096
-4096
8192
0
4096
-4096
8192
0
4096
-4096
8192
0
4096
-4096
8192
0
4096
-4096
8192
0
4096
-4096
8192
0
4096
-4096
8192
0
4096
-4096
8192
0
4096
-4096
8192
0
4096
-4096
8192
0
4096
-4096
8192
0
4096
-4096
8192
0
4096
-4096
8192
0
4096
-4096
8192
0
4096
-4096
8192
0
4096
-4096
8192
0
4096
-4096
8192
0
4096
-4096
8192
0
4096
-4096
8192
0
4096
-4096
8192
0
4096
-4096
8192
0
4096
-4096
8192
0
4096
-4096
8192
0
4096
-4096
8192
0
4096
-4096
8192
0
4096
-4096
8192
0
4096
-4096
8192
0
4096
-4096
8192
0
4096
-4096
8192
0
4096
-4096
8192
0
4096
-4096
8192
0
4096
-4096
8192
0
4096
-4096
8192
0
4096
-4096
8192
0
4096
-4096
8192
0
4096
-4096
8192
0
4096
-4096
8192
0
4096
-4096
8192
0
4096
-4096
8192
0
4096
-4096
8192
0
4096
-4096
8192
0
4096
-4096
8192
0
4096
-4096
8192
0
4096
-4096
8192
0
4096
-4096
8192
0
4096
-4096
8192
0
4096
-4096
8192
0
4096
-4096
8192
0
4096
-4096
8192
0
4096
-4096
8192
0
4096
-4096
8192
0
4096
-4096
8192
0
4096
-4096
8192
0
4096
-4096
8192
0
4096
-4096
8192
0
4096
-4096
8192
0
4096
-4096
8192
0
4096
-4096
8192
0
4096
-4096
8192
0
4096
-4096
8192
0
4096
-4096
8192
0
4096
-4096
8192
0
4096
-4096
8192
0
4096
-4096
8192
0
4096
-4096
8192
0
4096
-4096
8192
0
4096
-4096
8192
0
4096
-4096
8192
0
4096
-4096
8192
0
4096
-4096
8192
0
4096
-4096
8192
0
4096
-4096
8192
0
4096
-4096
8192
0
4096
-4096
8192
0
4096
-4096
8192
0
4096
-4096
8192
0
4096
-4096
8192
0
4096
-4096
8192
0
4096
-4096
8192
0
4096
-4096
8192
0
4096
-4096
8192
0
4096
-4096
8192
0
4096
-4096
8192
0
4096
-4096
8192
0
4096
-4096
8192
0
4096
-4096
8192
0
4096
-4096
8192
0
4096
-4096
8192
0
4096
-4096
8192
0
4096
-4096
8192
0
4096
-4096
8192
0
4096
-4096
8192
0
4096
-4096
8192
0
4096
-4096
8192
0
4096
-4096
8192
0
4096
-4096
8192
0
4096
-4096
8192
0
4096
-4096
8192
0
4096
-4096
8192
0
4096
-4096
8192
0
4096
-4096
8192
0
4096
-4096
8192
0
4096
-4096
8192
0
4096
-4096
8192
0
4096
-4096
8192
0
4096
-4096
8192
0
4096
-4096
8192
0
4096
-4096
8192
0
4096
-4096
8192
0
4096
-4096
8192
0
4096
-4096
8192
0
4096
-4096
8192
0
4096
-4096
8192
0
4096
-4096
8192
0
4096
-4096
8192
0
4096
-4096
8192
0
4096
-4096
8192
0
4096
-4096
8192
0
4096
-4096
8192
0
4096
-4096
8192
0
4096
-4096
8192
0
4096
-4096
8192
0
4096
-4096
8192
0
4096
-4096
8192
0
4096
-4096
8192
0
4096
-4096
8192
0
4096
-4096
8192
0
4096
-4096
8192
0
4096
-4096
8192
0
4096
-4096
8192
0
4096
-4096
8192
0
4096
-4096
8192
0
4096
-4096
8192
0
4096
-4096
8192
0
4096
-4096
8192
0
4096
-4096
8192
0
4096
-4096
8192
0
4096
-4096
8192
0
4096
-4096
8192
0
4096
-4096
8192
0
4096
-4096
8192
0
4096
-4096
8192
0
4096
-4096
8192
0
4096
-4096
8192
0
4096
-4096
8192
0
4096
-4096
8192
0
4096
-4096
8192
0
4096
-4096
8192
0
4096
-4096
8192
0
4096
-4096
8192
0
4096
-4096
8192
0
4096
-4096
8192
0
4096
-4096
8192
0
4096
-4096
8192
0
4096
-4096
8192
0
4096
-4096
8192
0
4096
-4096
8192
0
4096
-4096
8192
0
4096
-4096
8192
0
4096
-4096
8192
0
4096
-4096
8192
0
4096
-4096
8192
0
4096
-4096
8192
0
4096
-4096
8192
0
4096
-4096
8192
0
4096
-4096
8192
0
4096
-4096
8192
0
4096
-4096
8192
0
4096
-4096
8192
0
4096
-4096
8192
0
4096
-4096
8192
0
4096
-4096
8192
0
4096
-4096
8192
0
4096
-4096
8192
0
4096
-4096
8192
0
4096
-4096
8192
0
4096
-4096
8192
0
4096
-4096
8192
0
4096
-4096
8192
0
4096
-4096
8192
0
4096
-4096
8192
0
4096
-4096
8192
0
4096
-4096
8192
0
4096
-4096
8192
0
4096
-4096
8192
0
4096
-4096
8192
0
4096
-4096
8192
0
4096
-4096
8192
0
4096
-4096
8192
0
4096
-4096
8192
0
4096
-4096
8192
0
4096
-4096
8192
0
4096
-4096
8192
0
4096
-4096
8192
0
4096
-4096
8192
0
4096
-4096
8192
0
4096
-4096
8192
0
4096
-4096
8192
0
4096
-4096
8192
0
4096
-4096
8192
0
4096
-4096
8192
0
4096
-4096
8192
0
4096
-4096
8192
0
4096
-4096
8192
0
4096
-4096
8192
0
4096
-4096
8192
0
4096
-4096
8192
0
4096
-4096
8192
0
4096
-4096
8192
0
4096
-4096
8192
0
4096
-4096
8192
0
4096
-4096
8192
0
4096
-4096
8192
0
4096
-4096
8192
0
4096
-4096
8192
0
4096
-4096
8192
0
4096
-4096
8192
0
4096
-4096
8192
0
4096
-4096
8192
0
4096
-4096
8192
0
4096
-4096
8192
0
4096
-4096
8192
0
4096
-4096
8192
0
4096
-4096
8192
0
4096
-4096
8192
0
4096
-4096
8192
0
4096
-4096
8192
0
4096
-4096
8192
0
4096
-4096
8192
0
4096
-4096
8192
0
4096
-4096
8192
0
4096
-4096
8192
0
4096
-4096
8192
0
4096
-4096
8192
0
4096
-4096
8192
0
4096
-4096
8192
0
4096
-4096
8192
0
4096
-4096
8192
0
4096
-4096
8192
0
4096
-4096
8192
0
4096
-4096
8192
0
4096
-4096
8192
0
4096
-4096
8192
0
4096
-4096
8192
0
4096
-4096
8192
0
4096
-4096
8192
0
4096
-4096
8192
0
4096
-4096
8192
0
4096
-4096
8192
0
4096
-4096
8192
0
4096
-4096
8192
0
4096
-4096
8192
0
4096
-4096
8192
0
4096
-4096
8192
0
4096
-4096
8192
0
4096
-4096
8192
0
4096
-4096
8192
0
4096
-4096
8192
0
4096
-4096
8192
0
4096
-4096
8192
0
4096
-4096
8192
0
4096
-4096
8192
0
4096
-4096
8192
0
4096
-4096
8192
0
4096
-4096
8192
0
4096
-4096
8192
0
4096
-4096
8192
0
4096
-4096
8192
0
4096
-4096
8192
0
4096
-4096
8192
0
4096
-4096
8192
0
4096
-4096
8192
0
4096
-4096
8192
0
4096
-4096
8192
0
4096
-4096
8192
0
4096
-4096
8192
0
4096
-4096
8192
0
4096
-4096
8192
0
4096
-4096
8192
0
4096
-4096
8192
0
4096
-4096
8192
0
4096
-4096
8192
0
4096
-4096
8192
0
4096
-4096
8192
0
4096
-4096
8192
0
4096
-4096
8192
0
4096
-4096
8192
0
4096
-4096
8192
0
4096
-4096
8192
0
4096
-4096
8192
0
4096
-4096
8192
0
4096
-4096
8192
0
4096
-4096
8192
0
4096
-4096
8192
0
4096
-4096
8192
0
4096
-4096
8192
0
4096
-4096
8192
0
4096
-4096
8192
0
4096
-4096
8192
0
4096
-4096
8192
0
4096
-4096
8192
0
4096
-4096
8192
0
4096
-4096
8192
0
4096
-4096
8192
0
4096
-4096
8192
0
4096
-4096
8192
0
4096
-4096
8192
0
4096
-4096
8192
0
4096
-4096
8192
0
4096
-4096
8192
0
4096
-4096
8192
0
4096
-4096
8192
0
4096
-4096
8192
0
4096
-4096
8192
0
4096
-4096
8192
0
4096
-4096
8192
0
4096
-4096
8192
0
4096
-4096
8192
0
4096
-4096
8192
0
4096
-4096
8192
0
4096
-4096
8192
0
4096
-4096
8192
0
4096
-4096
8192
0
4096
-4096
8192
0
4096
-4096
8192
0
4096
-4096
8192
0
4096
-4096
8192
0
4096
-4096
8192
0
4096
-4096
8192
0
4096
-4096
8192
0
4096
-4096
8192
0
4096
-4096
8192
0
4096
-4096
8192
0
4096
-4096
8192
0
4096
-4096
8192
0
4096
-4096
8192
0
4096
-4096
8192
0
4096
-4096
8192
0
4096
-4096
8192
0
4096
-4096
8192
0
4096
-4096
8192
0
4096
-4096
8192
0
4096
-4096
8192
0
4096
-4096
8192
0
4096
-4096
8192
0
4096
-4096
8192
0
4096
-4096
8192
0
4096
-4096
8192
0
4096
-4096
8192
0
4096
-4096
8192
0
4096
-4096
8192
0
4096
-4096
8192
0
4096
-4096
8192
0
4096
-4096
8192
0
4096
-4096
8192
0
4096
-4096
8192
0
4096
-4096
8192
0
4096
-4096
8192
0
4096
-4096
8192
0
4096
-4096
8192
0
4096
-4096
8192
0
4096
-4096
8192
0
4096
-4096
8192
0
4096
-4096
8192
0
4096
-4096
8192
0
4096
-4096
8192
0
4096
-4096
8192
0
4096
-4096
8192
0
4096
-4096
8192
0
4096
-4096
8192
0
4096
-4096
8192
0
4096
-4096
8192
0
4096
-4096
8192
0
4096
-4096
8192
0
4096
-4096
8192
0
4096
-4096
8192
0
4096
-4096
8192
0
4096
-4096
8192
0
4096
-4096
8192
0
4096
-4096
8192
0
4096
-4096
8192
0
4096
-4096
8192
0
4096
-4096
8192
0
4096
-4096
8192
0
4096
-4096
8192
0
4096
-4096
8192
0
4096
-4096
8192
0
4096
-4096
8192
0
4096
-4096
8192
0
4096
-4096
8192
0
4096
-4096
8192
0
4096
-4096
8192
0
4096
-4096
8192
0
4096
-4096
8192
0
4096
-4096
8192
0
4096
-4096
8192
0
4096
-4096
8192
0
4096
-4096
8192
0
4096
-4096
8192
0
4096
-4096
8192
0
4096
-4096
8192
0
4096
-4096
8192
0
4096
-4096
8192
0
4096
-4096
8192
0
4096
-4096
8192
0
4096
-4096
8192
0
4096
-4096
8192
0
4096
-4096
8192
0
4096
-4096
8192
0
4096
-4096
8192
0
4096
-4096
8192
0
4096
-4096
8192
0
4096
-4096
8192
0
4096
-4096
8192
0
4096
-4096
8192
0
4096
-4096
8192
0
4096
-4096
8192
0
4096
-4096
8192
0
4096
-4096
8192
0
4096
-4096
8192
0
4096
-4096
8192
0
4096
-4096
8192
0
4096
-4096
8192
0
4096
-4096
8192
0
4096
-4096
8192
0
4096
-4096
8192
0
4096
-4096
8192
0
4096
-4096
8192
0
4096
-4096
8192
0
4096
-4096
8192
0
4096
-4096
8192
0
4096
-4096
8192
0
4096
-4096
8192
0
4096
-4096
8192
0
4096
-4096
8192
0
4096
-4096
8192
0
4096
-4096
8192
0
4096
-4096
8192
0
4096
-4096
8192
0
4096
-4096
8192
0
4096
-4096
8192
0
4096
-4096
8192
0
4096
-4096
8192
0
4096
-4096
8192
0
4096
-4096
8192
0
4096
-4096
8192
0
4096
-4096
8192
0
4096
-4096
8192
0
4096
-4096
8192
0
4096
-4096
8192
0
4096
-4096
8192
0
4096
-4096
8192
0
4096
-4096
8192
0
4096
-4096
8192
0
4096
-4096
8192
0
4096
-4096
8192
0
4096
-4096
8192
0
4096
-4096
8192
0
4096
-4096
8192
0
4096
-4096
8192
0
4096
-4096
8192
0
4096
-4096
8192
0
4096
-4096
8192
0
4096
-4096
8192
0
4096
-4096
8192
0
4096
-4096
8192
0
4096
-4096
8192
0
4096
-4096
8192
0
4096
-4096
8192
0
4096
-4096
8192
0
4096
-4096
8192
0
4096
-4096
8192
0
4096
-4096
8192
0
4096
-4096
8192
0
4096
-4096
8192
0
4096
-4096
8192
0
4096
-4096
8192
0
4096
-4096
8192
0
4096
-4096
8192
0
4096
-4096
8192
0
4096
-4096
8192
0
4096
-4096
8192
0
4096
-4096
8192
0
4096
-4096
8192
0
4096
-4096
8192
0
4096
-4096
8192
0
4096
-4096
8192
0
4096
-4096
8192
0
4096
-4096
8192
0
4096
-4096
8192
0
4096
-4096
8192
0
4096
-4096
8192
0
4096
-4096
8192
0
4096
-4096
8192
0
4096
-4096
8192
0
4096
-4096
8192
0
4096
-4096
8192
0
4096
-4096
8192
0
4096
-4096
8192
0
4096
-4096
8192
0
4096
-4096
8192
0
4096
-4096
8192
0
4096
-4096
8192
0
4096
-4096
8192
0
4096
-4096
8192
0
4096
-4096
8192
0
4096
-4096
8192
0
4096
-4096
8192
0
4096
-4096
8192
0
4096
-4096
8192
0
4096
-4096
8192
0
4096
-4096
8192
0
4096
-4096
8192
0
4096
-4096
8192
0
4096
-4096
8192
0
4096
-4096
8192
0
4096
-4096
8192
0
4096
-4096
8192
0
4096
-4096
8192
0
4096
-4096
8192
0
4096
-4096
8192
0
4096
-4096
8192
0
4096
-4096
8192
0
4096
-4096
8192
0
4096
-4096
8192
0
4096
-4096
8192
0
4096
-4096
8192
0
4096
-4096
8192
0
4096
-4096
8192
0
4096
-4096
8192
0
4096
-4096
8192
0
4096
-4096
8192
0
4096
-4096
8192
0
4096
-4096
8192
0
4096
-4096
8192
0
4096
-4096
8192
0
4096
-4096
8192
0
4096
-4096
8192
0
4096
-4096
8192
0
4096
-4096
8192
0
4096
-4096
8192
0
4096
-4096
8192
0
4096
-4096
8192
0
4096
-4096
8192
0
4096
-4096
8192
0
4096
-4096
8192
0
4096
-4096
8192
0
4096
-4096
8192
0
4096
-4096
8192
0
4096
-4096
8192
0
4096
-4096
8192
0
4096
-4096
8192
0
4096
-4096
8192
0
4096
-4096
8192
0
4096
-4096
8192
0
4096
-4096
8192
0
4096
-4096
8192
0
4096
-4096
8192
0
4096
-4096
8192
0
4096
-4096
8192
0
4096
-4096
8192
0
4096
-4096
8192
0
4096
-4096
8192
0
4096
-4096
8192
0
4096
-4096
8192
0
4096
-4096
8192
0
4096
-4096
8192
0
4096
-4096
8192
0
4096
-4096
8192
0
4096
-4096
8192
0
4096
-4096
8192
0
4096
-4096
8192
0
4096
-4096
8192
0
4096
-4096
8192
0
4096
-4096
8192
0
4096
-4096
8192
0
4096
-4096
8192
0
4096
-4096
8192
0
4096
-4096
8192
0
4096
-4096
8192
0
4096
-4096
8192
0
4096
-4096
8192
0
4096
-4096
8192
0
4096
-4096
8192
0
4096
-4096
8192
0
4096
-4096
8192
0
4096
-4096
8192
0
4096
-4096
8192
0
4096
-4096
8192
0
4096
-4096
8192
0
4096
-4096
8192
0
4096
-4096
8192
0
4096
-4096
8192
0
4096
-4096
8192
0
4096
-4096
8192
0
4096
-4096
8192
0
4096
-4096
8192
0
4096
-4096
8192
0
4096
-4096
8192
0
4096
-4096
8192
0
4096
-4096
8192
0
4096
-4096
8192
0
4096
-4096
8192
0
4096
-4096
8192
0
4096
-4096
8192
0
4096
-4096
8192
0
4096
-4096
8192
0
4096
-4096
8192
0
4096
-4096
8192
0
4096
-4096
8192
0
4096
-4096
8192
0
4096
-4096
8192
0
4096
-4096
8192
0
4096
-4096
8192
0
4096
-4096
8192
0
4096
-4096
8192
0
4096
-4096
8192
0
4096
-4096
8192
0
4096
-4096
8192
0
4096
-4096
8192
0
4096
-4096
8192
0
4096
-4096
8192
0
4096
-4096
8192
0
4096
-4096
8192
0
4096
-4096
8192
0
4096
-4096
8192
0
4096
-4096
8192
0
4096
-4096
8192
0
4096
-4096
8192
0
4096
-4096
8192
0
4096
-4096
8192
0
4096
-4096
8192
0
4096
-4096
8192
0
4096
-4096
8192
0
4096
-4096
8192
0
4096
-4096
8192
0
4096
-4096
8192
0
4096
-4096
8192
0
4096
-4096
8192
0
4096
-4096
8192
0
4096
-4096
8192
0
4096
-4096
8192
0
4096
-4096
8192
0
4096
-4096
8192
0
4096
-4096
8192
0
4096
-4096
8192
0
4096
-4096
8192
0
4096
-4096
8192
0
4096
-4096
8192
0
4096
-4096
8192
0
4096
-4096
8192
0
4096
-4096
8192
0
4096
-4096
8192
0
4096
-4096
8192
0
4096
-4096
8192
0
4096
-4096
8192
0
4096
-4096
8192
0
4096
-4096
8192
0
4096
-4096
8192
0
4096
-4096
8192
0
4096
-4096
8192
0
4096
-4096
8192
0
4096
-4096
8192
0
4096
-4096
8192
0
4096
-4096
8192
0
4096
-4096
8192
0
4096
-4096
8192
0
4096
-4096
8192
0
4096
-4096
8192
0
4096
-4096
8192
0
4096
-4096
8192
0
4096
-4096
8192
0
4096
-4096
8192
0
4096
-4096
8192
0
4096
-4096
8192
0
4096
-4096
8192
0
4096
-4096
8192
0
4096
-4096
8192
0
4096
-4096
8192
0
4096
-4096
8192
0
4096
-4096
8192
0
4096
-4096
8192
0
4096
-4096
8192
0
4096
-4096
8192
0
4096
-4096
8192
0
4096
-4096
8192
0
4096
-4096
8192
0
4096
-4096
8192
0
4096
-4096
8192
0
4096
-4096
8192
0
4096
-4096
8192
0
4096
-4096
8192
0
4096
-4096
8192
0
4096
-4096
8192
0
4096
-4096
8192
0
4096
-4096
8192
0
4096
-4096
8192
0
4096
-4096
8192
0
4096
-4096
8192
0
4096
-4096
8192
0
4096
-4096
8192
0
4096
-4096
8192
0
4096
-4096
8192
0
4096
-4096
8192
0
4096
-4096
8192
0
4096
-4096
8192
0
4096
-4096
8192
0
4096
-4096
8192
0
4096
-4096
8192
0
4096
-4096
8192
0
4096
-4096
8192
0
4096
-4096
8192
0
4096
-4096
8192
0
4096
-4096
8192
0
4096
-4096
8192
0
4096
-4096
8192
0
4096
-4096
8192
0
4096
-4096
8192
0
4096
-4096
8192
0
4096
-4096
8192
0
4096
-4096
8192
0
4096
-4096
8192
0
4096
-4096
8192
0
4096
-4096
8192
0
4096
-4096
8192
0
4096
-4096
8192
0
4096
-4096
8192
0
4096
-4096
8192
0
4096
-4096
8192
0
4096
-4096
8192
0
4096
-4096
8192
0
4096
-4096
8192
0
4096
-4096
8192
0
4096
-4096
8192
0
4096
-4096
8192
0
4096
-4096
8192
0
4096
-4096
8192
0
4096
-4096
8192
0
4096
-4096
8192
0
4096
-4096
8192
0
4096
-4096
8192
0
4096
-4096
8192
0
4096
-4096
8192
0
4096
-4096
8192
0
4096
-4096
8192
0
4096
-4096
8192
0
4096
-4096
8192
0
4096
-4096
8192
0
4096
-4096
8192
0
4096
-4096
8192
0
4096
-4096
8192
0
4096
-4096
8192
0
4096
-4096
8192
0
4096
-4096
8192
0
4096
-4096
8192
0
4096
-4096
8192
0
4096
-4096
8192
0
4096
-4096
8192
0
4096
-4096
8192
0
4096
-4096
8192
0
4096
-4096
8192
0
4096
-4096
8192
0
4096
-4096
8192
0
4096
-4096
8192
0
4096
-4096
8192
0
4096
-4096
8192
0
4096
-4096
8192
0
4096
-4096
8192
0
4096
-4096
8192
0
4096
-4096
8192
0
4096
-4096
8192
0
4096
-4096
8192
0
4096
-4096
8192
0
4096
-4096
8192
0
4096
-4096
8192
0
4096
-4096
8192
0
4096
-4096
8192
0
4096
-4096
8192
0
4096
-4096
8192
0
4096
-4096
8192
0
4096
-4096
8192
0
4096
-4096
8192
0
4096
-4096
8192
0
4096
-4096
8192
0
4096
-4096
8192
0
4096
-4096
8192
0
4096
-4096
8192
0
4096
-4096
8192
0
4096
-4096
8192
0
4096
-4096
8192
0
4096
-4096
8192
0
4096
-4096
8192
0
4096
-4096
8192
0
4096
-4096
8192
0
4096
-4096
8192
0
4096
-4096
8192
0
4096
-4096
8192
0
4096
-4096
8192
0
4096
-4096
8192
0
4096
-4096
8192
0
4096
-4096
8192
0
4096
-4096
8192
0
4096
-4096
8192
0
4096
-4096
8192
0
4096
-4096
8192
0
4096
-4096
8192
0
4096
-4096
8192
0
4096
-4096
8192
0
4096
-4096
8192
0
4096
-4096
8192
0
4096
-4096
8192
0
4096
-4096
8192
0
4096
-4096
8192
0
4096
-4096
8192
0
4096
-4096
8192
0
4096
-4096
8192
0
4096
-4096
8192
0
4096
-4096
8192
0
4096
-4096
8192
0
4096
-4096
8192
0
4096
-4096
8192
0
4096
-4096
8192
0
4096
-4096
8192
0
4096
-4096
8192
0
4096
-4096
8192
0
4096
-4096
8192
0
4096
-4096
8192
0
4096
-4096
8192
0
4096
-4096
8192
0
4096
-4096
8192
0
4096
-4096
8192
0
4096
-4096
8192
0
4096
-4096
8192
0
4096
-4096
8192
0
4096
-4096
8192
0
4096
-4096
8192
0
4096
-4096
8192
0
4096
-4096
8192
0
4096
-4096
8192
0
4096
-4096
8192
0
4096
-4096
8192
0
4096
-4096
8192
0
4096
-4096
8192
0
4096
-4096
8192
0
4096
-4096
8192
0
4096
-4096
8192
0
4096
-4096
8192
0
4096
-4096
8192
0
4096
-4096
8192
0
4096
-4096
8192
0
4096
-4096
8192
0
4096
-4096
8192
0
4096
-4096
8192
0
4096
-4096
8192
0
4096
-4096
8192
0
4096
-4096
8192
0
4096
-4096
8192
0
4096
-4096
8192
0
4096
-4096
8192
0
4096
-4096
8192
0
4096
-4096
8192
0
4096
-4096
8192
0
4096
-4096
8192
0
4096
-4096
8192
0
4096
-4096
8192
0
4096
-4096
8192
0
4096
-4096
8192
0
4096
-4096
8192
0
4096
-4096
8192
0
4096
-4096
8192
0
4096
-4096
8192
0
4096
-4096
8192
0
4096
-4096
8192
0
4096
-4096
8192
0
4096
-4096
8192
0
4096
-4096
8192
0
4096
-4096
8192
0
4096
-4096
8192
0
4096
-4096
8192
0
4096
-4096
8192
0
4096
-4096
8192
0
4096
-4096
8192
0
4096
-4096
8192
0
4096
-4096
8192
0
4096
-4096
8192
0
4096
-4096
8192
0
4096
-4096
8192
0
4096
-4096
8192
0
4096
-4096
8192
0
4096
-4096
8192
0
4096
-4096
8192
0
4096
-4096
8192
0
4096
-4096
8192
0
4096
-4096
8192
0
4096
-4096
8192
0
4096
-4096
8192
0
4096
-4096
8192
0
4096
-4096
8192
0
4096
-4096
8192
0
4096
-4096
8192
0
4096
-4096
8192
0
4096
-4096
8192
0
4096
-4096
8192
0
4096
-4096
8192
0
4096
-4096
8192
0
4096
-4096
8192
0
4096
-4096
8192
0
4096
-4096
8192
0
4096
-4096
8192
0
4096
-4096
8192
0
4096
-4096
8192
0
4096
-4096
8192
0
4096
-4096
8192
0
4096
-4096
8192
0
4096
-4096
8192
0
4096
-4096
8192
0
4096
-4096
8192
0
4096
-4096
8192
0
4096
-4096
8192
0
4096
-4096
8192
0
4096
-4096
8192
0
4096
-4096
8192
0
4096
-4096
8192
0
4096
-4096
8192
0
4096
-4096
8192
0
4096
-4096
8192
0
4096
-4096
8192
0
4096
-4096
8192
0
4096
-4096
8192
0
4096
-4096
8192
0
4096
-4096
8192
0
4096
-4096
8192
0
4096
-4096
8192
0
4096
-4096
8192
0
4096
-4096
8192
0
4096
-4096
8192
0
4096
-4096
8192
0
4096
-4096
8192
0
4096
-4096
8192
0
4096
-4096
8192
0
4096
-4096
8192
0
4096
-4096
8192
0
4096
-4096
8192
0
4096
-4096
8192
0
4096
-4096
8192
0
4096
-4096
8192
0
4096
-4096
8192
0
4096
-4096
8192
0
4096
-4096
8192
0
4096
-4096
8192
0
4096
-4096
8192
0
4096
-4096
8192
0
4096
-4096
8192
0
4096
-4096
8192
0
4096
-4096
8192
0
4096
-4096
8192
0
4096
-4096
8192
0
4096
-4096
8192
0
4096
-4096
8192
0
4096
-4096
8192
0
4096
-4096
8192
0
4096
-4096
8192
0
4096
-4096
8192
0
4096
-4096
8192
0
4096
-4096
8192
0
4096
-4096
8192
0
4096
-4096
8192
0
4096
-4096
8192
0
4096
-4096
8192
0
4096
-4096
8192
0
4096
-4096
8192
0
4096
-4096
8192
0
4096
-4096
8192
0
4096
-4096
8192
0
4096
-4096
8192
0
4096
-4096
8192
0
4096
-4096
8192
0
4096
-4096
8192
0
4096
-4096
8192
0
4096
-4096
8192
0
4096
-4096
8192
0
4096
-4096
8192
0
4096
-4096
8192
0
4096
-4096
8192
0
4096
-4096
8192
0
4096
-4096
8192
0
4096
-4096
8192
0
4096
-4096
8192
0
4096
-4096
8192
0
4096
-4096
8192
0
4096
-4096
8192
0
4096
-4096
8192
0
4096
-4096
8192
0
4096
-4096
8192
0
4096
-4096
8192
0
4096
-4096
8192
0
4096
-4096
8192
0
4096
-4096
8192
0
4096
-4096
8192
0
4096
-4096
8192
0
4096
-4096
8192
0
4096
-4096
8192
0
4096
-4096
8192
0
4096
-4096
8192
0
4096
-4096
8192
0
4096
-4096
8192
0
4096
-4096
8192
0
4096
-4096
8192
0
4096
-4096
8192
0
4096
-4096
8192
0
4096
-4096
8192
0
4096
-4096
8192
0
4096
-4096
8192
0
4096
-4096
8192
0
4096
-4096
8192
0
4096
-4096
8192
0
4096
-4096
8192
0
4096
-4096
8192
0
4096
-4096
8192
0
4096
-4096
8192
0
4096
-4096
8192
0
4096
-4096
8192
0
4096
-4096
8192
0
4096
-4096
8192
0
4096
-4096
8192
0
4096
-4096
8192
0
4096
-4096
8192
0
4096
-4096
8192
0
4096
-4096
8192
0
4096
-4096
8192
0
4096
-4096
8192
0
4096
-4096
8192
0
4096
-4096
8192
0
4096
-4096
8192
0
4096
-4096
8192
0
4096
-4096
8192
0
4096
-4096
8192
0
4096
-4096
8192
0
4096
-4096
8192
0
4096
-4096
8192
0
4096
-4096
8192
0
4096
-4096
8192
0
4096
-4096
8192
0
4096
-4096
8192
0
4096
-4096
8192
0
4096
-4096
8192
0
4096
-4096
8192
0
4096
-4096
8192
0
4096
-4096
8192
0
4096
-4096
8192
0
4096
-4096
8192
0
4096
-4096
8192
0
4096
-4096
8192
0
4096
-4096
8192
0
4096
-4096
8192
0
4096
-4096
8192
0
4096
-4096
8192
0
4096
-4096
8192
0
4096
-4096
8192
0
4096
-4096
8192
0
4096
-4096
8192
0
4096
-4096
8192
0
4096
-4096
8192
0
4096
-4096
8192
0
4096
-4096
8192
0
4096
-4096
8192
0
4096
-4096
8192
0
4096
-4096
8192
0
4096
-4096
8192
0
4096
-4096
8192
0
4096
-4096
8192
0
4096
-4096
8192
0
4096
-4096
8192
0
4096
-4096
8192
0
4096
-4096
8192
0
4096
-4096
8192
0
4096
-4096
8192
0
4096
-4096
8192
0
4096
-4096
8192
0
4096
-4096
8192
0
4096
-4096
8192
0
4096
-4096
8192
0
4096
-4096
8192
0
4096
-4096
8192
0
4096
-4096
8192
0
4096
-4096
8192
0
4096
-4096
8192
0
4096
-4096
8192
0
4096
-4096
8192
0
4096
-4096
8192
0
4096
-4096
8192
0
4096
-4096
8192
0
4096
-4096
8192
0
4096
-4096
8192
0
4096
-4096
8192
0
4096
-4096
8192
0
4096
-4096
8192
0
4096
-4096
8192
0
4096
-4096
8192
0
4096
-4096
8192
0
4096
-4096
8192
0
4096
-4096
8192
0
4096
-4096
8192
0
4096
-4096
8192
0
4096
-4096
8192
0
4096
-4096
8192
0
4096
-4096
8192
0
4096
-4096
8192
0
4096
-4096
8192
0
4096
-4096
8192
0
4096
-4096
8192
0
4096
-4096
8192
0
4096
-4096
8192
0
4096
-4096
8192
0
4096
-4096
8192
0
4096
-4096
8192
0
4096
-4096
8192
0
4096
-4096
8192
0
4096
-4096
8192
0
4096
-4096
8192
0
4096
-4096
8192
0
4096
-4096
8192
0
4096
-4096
8192
0
4096
-4096
8192
0
4096
-4096
8192
0
4096
-4096
8192
0
4096
-4096
8192
0
4096
-4096
8192
0
4096
-4096
8192
0
4096
-4096
8192
0
4096
-4096
8192
0
4096
-4096
8192
0
4096
-4096
8192
0
4096
-4096
8192
0
4096
-4096
8192
0
4096
-4096
8192
0
4096
-4096
8192
0
4096
-4096
8192
0
4096
-4096
8192
0
4096
-4096
8192
0
4096
-4096
8192
0
4096
-4096
8192
0
4096
-4096
8192
0
4096
-4096
8192
0
4096
-4096
8192
0
4096
-4096
8192
0
4096
-4096
8192
0
4096
-4096
8192
0
4096
-4096
8192
0
4096
-4096
8192
0
4096
-4096
8192
0
4096
-4096
8192
0
4096
-4096
8192
0
4096
-4096
8192
0
4096
-4096
8192
0
4096
-4096
8192
0
4096
-4096
8192
0
4096
-4096
8192
0
4096
-4096
8192
0
4096
-4096
8192
0
4096
-4096
8192
0
4096
-4096
8192
0
4096
-4096
8192
0
4096
-4096
8192
0
4096
-4096
8192
0
4096
-4096
8192
0
4096
-4096
8192
0
4096
-4096
8192
0
4096
-4096
8192
0
4096
-4096
8192
0
4096
-4096
8192
0
4096
-4096
8192
0
4096
-4096
8192
0
4096
-4096
8192
0
4096
-4096
8192
0
4096
-4096
8192
0
4096
-4096
8192
0
4096
-4096
8192
0
4096
-4096
8192
0
4096
-4096
8192
0
4096
-4096
8192
0
4096
-4096
8192
0
4096
-4096
8192
0
4096
-4096
8192
0
4096
-4096
8192
0
4096
-4096
8192
0
4096
-4096
8192
0
4096
-4096
8192
0
4096
-4096
8192
0
4096
-4096
8192
0
4096
-4096
8192
0
4096
-4096
8192
0
4096
-4096
8192
0
4096
-4096
8192
0
4096
-4096
8192
0
4096
-4096
8192
0
4096
-4096
8192
0
4096
-4096
8192
0
4096
-4096
8192
0
4096
-4096
8192
0
4096
-4096
8192
0
4096
-4096
8192
0
4096
-4096
8192
0
4096
-4096
8192
0
4096
-4096
8192
0
4096
-4096
8192
0
4096
-4096
8192
0
4096
-4096
8192
0
4096
-4096
8192
0
4096
-4096
8192
0
4096
-4096
8192
0
4096
-4096
8192
0
4096
-4096
8192
0
4096
-4096
8192
0
4096
-4096
8192
0
4096
-4096
8192
0
4096
-4096
8192
0
4096
-4096
8192
0
4096
-4096
8192
0
4096
-4096
8192
0
4096
-4096
8192
0
4096
-4096
8192
0
4096
-4096
8192
0
4096
-4096
8192
0
4096
-4096
8192
0
4096
-4096
8192
0
4096
-4096
8192
0
4096
-4096
8192
0
4096
-4096
8192
0
4096
-4096
8192
0
4096
-4096
8192
0
4096
-4096
8192
0
4096
-4096
8192
0
4096
-4096
8192
0
4096
-4096
8192
0
4096
-4096
8192
0
4096
-4096
8192
0
4096
-4096
8192
0
4096
-4096
8192
0
4096
-4096
8192
0
4096
-4096
8192
0
4096
-4096
8192
0
4096
-4096
8192
0
4096
-4096
8192
0
4096
-4096
8192
0
4096
-4096
8192
0
4096
-4096
8192
0
4096
-4096
8192
0
4096
-4096
8192
0
4096
-4096
8192
0
4096
-4096
8192
0
4096
-4096
8192
0
4096
-4096
8192
0
4096
-4096
8192
0
4096
-4096
8192
0
4096
-4096
8192
0
4096
-4096
8192
0
4096
-4096
8192
0
4096
-4096
8192
0
4096
-4096
8192
0
4096
-4096
8192
0
4096
-4096
8192
0
4096
-4096
8192
0
4096
-4096
8192
0
4096
-4096
8192
0
4096
-4096
8192
0
4096
-4096
8192
0
4096
-4096
8192
0
4096
-4096
8192
0
4096
-4096
8192
0
4096
-4096
8192
0
4096
-4096
8192
0
4096
-4096
8192
0
4096
-4096
8192
0
4096
-4096
8192
0
4096
-4096
8192
0
4096
-4096
8192
0
4096
-4096
8192
0
4096
-4096
8192
0
4096
-4096
8192
0
4096
-4096
8192
0
4096
-4096
8192
0
4096
-4096
8192
0
4096
-4096
8192
0
4096
-4096
8192
0
4096
-4096
8192
0
4096
-4096
8192
0
4096
-4096
8192
0
4096
-4096
8192
0
4096
-4096
8192
0
4096
-4096
8192
0
4096
-4096
8192
0
4096
-4096
8192
0
4096
-4096
8192
0
4096
-4096
8192
0
4096
-4096
8192
0
4096
-4096
8192
0
4096
-4096
8192
0
4096
-4096
8192
0
4096
-4096
8192
0
4096
-4096
8192
0
4096
-4096
8192
0
4096
-4096
8192
0
4096
-4096
8192
0
4096
-4096
8192
0
4096
-4096
8192
0
4096
-4096
8192
0
4096
-4096
8192
0
4096
-4096
8192
0
4096
-4096
8192
0
4096
-4096
8192
0
4096
-4096
8192
0
4096
-4096
8192
0
4096
-4096
8192
0
4096
-4096
8192
0
4096
-4096
8192
0
4096
-4096
8192
0
4096
-4096
8192
0
4096
-4096
8192
0
4096
-4096
8192
0
4096
-4096
8192
0
4096
-4096
8192
0
4096
-4096
8192
0
4096
-4096
8192
0
4096
-4096
8192
0
4096
-4096
8192
0
4096
-4096
8192
0
4096
-4096
8192
0
4096
-4096
8192
0
4096
-4096
8192
0
4096
-4096
8192
0
4096
-4096
8192
0
4096
-4096
8192
0
4096
-4096
8192
0
4096
-4096
8192
0
4096
-4096
8192
0
4096
-4096
8192
0
4096
-4096
8192
0
4096
-4096
8192
0
4096
-4096
8192
0
4096
-4096
8192
0
4096
-4096
8192
0
4096
-4096
8192
0
4096
-4096
8192
0
4096
-4096
8192
0
4096
-4096
8192
0
4096
-4096
8192
0
4096
-4096
8192
0
4096
-4096
8192
0
4096
-4096
8192
0
4096
-4096
8192
0
4096
-4096
8192
0
4096
-4096
8192
0
4096
-4096
8192
0
4096
-4096
8192
0
4096
-4096
8192
0
4096
-4096
8192
0
4096
-4096
8192
0
4096
-4096
8192
0
4096
-4096
8192
0
4096
-4096
8192
0
4096
-4096
8192
0
4096
-4096
8192
0
4096
-4096
8192
0
4096
-4096
8192
0
4096
-4096
8192
0
4096
-4096
8192
0
4096
-4096
8192
0
4096
-4096
8192
0
4096
-4096
8192
0
4096
-4096
8192
0
4096
-4096
8192
0
4096
-4096
8192
0
4096
-4096
8192
0
4096
-4096
8192
0
4096
-4096
8192
0
4096
-4096
8192
0
4096
-4096
8192
0
4096
-4096
8192
0
4096
-4096
8192
0
4096
-4096
8192
0
4096
-4096
8192
0
4096
-4096
8192
0
4096
-4096
8192
0
4096
-4096
8192
0
4096
-4096
8192
0
4096
-4096
8192
0
4096
-4096
8192
0
4096
-4096
8192
0
4096
-4096
8192
0
4096
-4096
8192
0
4096
-4096
8192
0
4096
-4096
8192
0
4096
-4096
8192
0
4096
-4096
8192
0
4096
-4096
8192
0
4096
-4096
8192
0
4096
-4096
8192
0
4096
-4096
8192
0
4096
-4096
8192
0
4096
-4096
8192
0
4096
-4096
8192
0
4096
-4096
8192
0
4096
-4096
8192
0
4096
-4096
8192
0
4096
-4096
8192
0
4096
-4096
8192
0
4096
-4096
8192
0
4096
-4096
8192
0
4096
-4096
8192
0
4096
-4096
8192
0
4096
-4096
8192
0
4096
-4096
8192
0
4096
-4096
8192
0
4096
-4096
8192
0
4096
-4096
8192
0
4096
-4096
8192
0
4096
-4096
8192
0
4096
-4096
8192
0
4096
-4096
8192
0
4096
-4096
8192
0
4096
-4096
8192
0
4096
-4096
8192
0
4096
-4096
8192
0
4096
-4096
8192
0
4096
-4096
8192
0
4096
-4096
8192
0
4096
-4096
8192
0
4096
-4096
8192
0
4096
-4096
8192
0
4096
-4096
8192
0
4096
-4096
8192
0
4096
-4096
8192
0
4096
-4096
8192
0
4096
-4096
8192
0
4096
-4096
8192
0
4096
-4096
8192
0
4096
-4096
8192
0
4096
-4096
8192
0
4096
-4096
8192
0
4096
-4096
8192
0
4096
-4096
8192
0
4096
-4096
8192
0
4096
-4096
8192
0
4096
-4096
8192
0
4096
-4096
8192
0
4096
-4096
8192
0
4096
-4096
8192
0
4096
-4096
8192
0
4096
-4096
8192
0
4096
-4096
8192
0
4096
-4096
8192
0
4096
-4096
8192
0
4096
-4096
8192
0
4096
-4096
8192
0
4096
-4096
8192
0
4096
-4096
8192
0
4096
-4096
8192
0
4096
-4096
8192
0
4096
-4096
8192
0
4096
-4096
8192
0
4096
-4096
8192
0
4096
-4096
8192
0
4096
-4096
8192
0
4096
-4096
8192
0
4096
-4096
8192
0
4096
-4096
8192
0
4096
-4096
8192
0
4096
-4096
8192
0
4096
-4096
8192
0
4096
-4096
8192
0
4096
-4096
8192
0
4096
-4096
8192
0
4096
-4096
8192
0
4096
-4096
8192
0
4096
-4096
8192
0
4096
-4096
8192
0
4096
-4096
8192
0
4096
-4096
8192
0
4096
-4096
8192
0
4096
-4096
8192
0
4096
-4096
8192
0
4096
-4096
8192
0
4096
-4096
8192
0
4096
-4096
8192
0
4096
-4096
8192
0
4096
-4096
8192
0
4096
-4096
8192
0
4096
-4096
8192
0
4096
-4096
8192
0
4096
-4096
8192
0
4096
-4096
8192
0
4096
-4096
8192
0
4096
-4096
8192
0
4096
-4096
8192
0
4096
-4096
8192
0
4096
-4096
8192
0
4096
-4096
8192
0
4096
-4096
8192
0
4096
-4096
8192
0
4096
-4096
8192
0
4096
-4096
8192
0
4096
-4096
8192
0
4096
-4096
8192
0
4096
-4096
8192
0
4096
-4096
8192
0
4096
-4096
8192
0
4096
-4096
8192
0
4096
-4096
8192
0
4096
-4096
8192
0
4096
-4096
8192
0
4096
-4096
8192
0
4096
-4096
8192
0
4096
-4096
8192
0
4096
-4096
8192
0
4096
-4096
8192
0
4096
-4096
8192
0
4096
-4096
8192
0
4096
-4096
8192
0
4096
-4096
8192
0
4096
-4096
8192
0
4096
-4096
8192
0
4096
-4096
8192
0
4096
-4096
8192
0
4096
-4096
8192
0
4096
-4096
8192
0
4096
-4096
8192
0
4096
-4096
8192
0
4096
-4096
8192
0
4096
-4096
8192
0
4096
-4096
8192
0
4096
-4096
8192
0
4096
-4096
8192
0
4096
-4096
8192
0
4096
-4096
8192
0
4096
-4096
8192
0
4096
-4096
8192
0
4096
-4096
8192
0
4096
-4096
8192
0
4096
-4096
8192
0
4096
-4096
8192
0
4096
-4096
8192
0
4096
-4096
8192
0
4096
-4096
8192
0
4096
-4096
8192
0
4096
-4096
8192
0
4096
-4096
8192
0
4096
-4096
8192
0
4096
-4096
8192
0
4096
-4096
8192
0
4096
-4096
8192
0
4096
-4096
8192
0
4096
-4096
8192
0
4096
-4096
8192
0
4096
-4096
8192
0
4096
-4096
8192
0
4096
-4096
8192
0
4096
-4096
8192
0
4096
-4096
8192
0
4096
-4096
8192
0
4096
-4096
8192
0
4096
-4096
8192
0
4096
-4096
8192
0
4096
-4096
8192
0
4096
-4096
8192
0
4096
-4096
8192
0
4096
-4096
8192
0
4096
-4096
8192
0
4096
-4096
8192
0
4096
-4096
8192
0
4096
-4096
8192
0
4096
-4096
8192
0
4096
-4096
8192
0
4096
-4096
8192
0
4096
-4096
8192
0
4096
-4096
8192
0
4096
-4096
8192
0
4096
-4096
8192
0
4096
-4096
8192
0
4096
-4096
8192
0
4096
-4096
8192
0
4096
-4096
8192
0
4096
-4096
8192
0
4096
-4096
8192
0
4096
-4096
8192
0
4096
-4096
8192
0
4096
-4096
8192
0
4096
-4096
8192
0
4096
-4096
8192
0
4096
-4096
8192
0
4096
-4096
8192
0
4096
-4096
8192
0
4096
-4096
8192
0
4096
-4096
8192
0
4096
-4096
8192
0
4096
-4096
8192
0
4096
-4096
8192
0
4096
-4096
8192
0
4096
-4096
8192
0
4096
-4096
8192
0
4096
-4096
8192
0
4096
-4096
8192
0
4096
-4096
8192
0
4096
-4096
8192
0
4096
-4096
8192
0
4096
-4096
8192
0
4096
-4096
8192
0
4096
-4096
8192
0
4096
-4096
8192
0
4096
-4096
8192
0
4096
-4096
8192
0
4096
-4096
8192
0
4096
-4096
8192
0
4096
-4096
8192
0
4096
-4096
8192
0
4096
-4096
8192
0
4096
-4096
8192
0
4096
-4096
8192
0
4096
-4096
8192
0
4096
-4096
8192
0
4096
-4096
8192
0
4096
-4096
8192
0
4096
-4096
8192
0
4096
-4096
8192
0
4096
-4096
8192
0
4096
-4096
8192
0
4096
-4096
8192
0
4096
-4096
8192
0
4096
-4096
8192
0
4096
-4096
8192
0
4096
-4096
8192
0
4096
-4096
8192
0
4096
-4096
8192
0
4096
-4096
8192
0
4096
-4096
8192
0
4096
-4096
8192
0
4096
-4096
8192
0
4096
-4096
8192
0
4096
-4096
8192
0
4096
-4096
8192
0
4096
-4096
8192
0
4096
-4096
8192
0
4096
-4096
8192
0
4096
-4096
8192
0
4096
-4096
8192
0
4096
-4096
8192
0
4096
-4096
8192
0
4096
-4096
8192
0
4096
-4096
8192
0
4096
-4096
8192
0
4096
-4096
8192
0
4096
-4096
8192
0
4096
-4096
8192
0
4096
-4096
8192
0
4096
-4096
8192
0
4096
-4096
8192
0
4096
-4096
8192
0
4096
-4096
8192
0
4096
-4096
8192
0
4096
-4096
8192
0
4096
-4096
8192
0
4096
-4096
8192
0
4096
-4096
8192
0
4096
-4096
8192
0
4096
-4096
8192
0
4096
-4096
8192
0
4096
-4096
8192
0
4096
-4096
8192
0
4096
-4096
8192
0
4096
-4096
8192
0
4096
-4096
8192
0
4096
-4096
8192
0
4096
-4096
8192
0
4096
-4096
8192
0
4096
-4096
8192
0
4096
-4096
8192
0
4096
-4096
8192
0
4096
-4096
8192
0
4096
-4096
8192
0
4096
-4096
8192
0
4096
-4096
8192
0
4096
-4096
8192
0
4096
-4096
8192
0
4096
-4096
8192
0
4096
-4096
8192
0
4096
-4096
8192
0
4096
-4096
8192
0
4096
-4096
8192
0
4096
-4096
8192
0
4096
-4096
8192
0
4096
-4096
8192
0
4096
-4096
8192
0
4096
-4096
8192
0
4096
-4096
8192
0
4096
-4096
8192
0
4096
-4096
8192
0
4096
-4096
8192
0
4096
-4096
8192
0
4096
-4096
8192
0
4096
-4096
8192
0
4096
-4096
8192
0
4096
-4096
8192
0
4096
-4096
8192
0
4096
-4096
8192
0
4096
-4096
8192
0
4096
-4096
8192
0
4096
-4096
8192
0
4096
-4096
8192
0
4096
-4096
8192
0
4096
-4096
8192
0
4096
-4096
8192
0
4096
-4096
8192
0
4096
-4096
8192
0
4096
-4096
8192
0
4096
-4096
8192
0
4096
-4096
8192
0
4096
-4096
8192
0
4096
-4096
8192
0
4096
-4096
8192
0
4096
-4096
8192
0
4096
-4096
8192
0
4096
-4096
8192
0
4096
-4096
8192
0
4096
-4096
8192
0
4096
-4096
8192
0
4096
-4096
8192
0
4096
-4096
8192
0
4096
-4096
8192
0
4096
-4096
8192
0
4096
-4096
8192
0
4096
-4096
8192
0
4096
-4096
8192
0
4096
-4096
8192
0
4096
-4096
8192
0
4096
-4096
8192
0
4096
-4096
8192
0
4096
-4096
8192
0
4096
-4096
8192
0
4096
-4096
8192
0
4096
-4096
8192
0
4096
-4096
8192
0
4096
-4096
8192
0
4096
-4096
8192
0
4096
-4096
8192
0
4096
-4096
8192
0
4096
-4096
8192
0
4096
-4096
8192
0
4096
-4096
8192
0
4096
-4096
8192
0
4096
-4096
8192
0
4096
-4096
8192
0
4096
-4096
8192
0
4096
-4096
8192
0
4096
-4096
8192
0
4096
-4096
8192
0
4096
-4096
8192
0
4096
-4096
8192
0
4096
-4096
8192
0
4096
-4096
8192
0
4096
-4096
8192
0
4096
-4096
8192
0
4096
-4096
8192
0
4096
-4096
8192
0
4096
-4096
8192
0
4096
-4096
8192
0
4096
-4096
8192
0
4096
-4096
8192
0
4096
-4096
8192
0
4096
-4096
8192
0
4096
-4096
8192
0
4096
-4096
8192
0
4096
-4096
8192
0
4096
-4096
8192
0
4096
-4096
8192
0
4096
-4096
8192
0
4096
-4096
8192
0
4096
-4096
8192
0
4096
-4096
8192
0
4096
-4096
8192
0
4096
-4096
8192
0
4096
-4096
8192
0
4096
-4096
8192
0
4096
-4096
8192
0
4096
-4096
8192
0
4096
-4096
8192
0
4096
-4096
8192
0
4096
-4096
8192
0
4096
-4096
8192
0
4096
-4096
8192
0
4096
-4096
8192
0
4096
-4096
8192
0
4096
-4096
8192
0
4096
-4096
8192
0
4096
-4096
8192
0
4096
-4096
8192
0
4096
-4096
8192
0
4096
-4096
8192
0
4096
-4096
8192
0
4096
-4096
8192
0
4096
-4096
8192
0
4096
-4096
8192
0
4096
-4096
8192
0
4096
-4096
8192
0
4096
-4096
8192
0
4096
-4096
8192
0
4096
-4096
8192
0
4096
-4096
8192
0
4096
-4096
8192
0
4096
-4096
8192
0
4096
-4096
8192
0
4096
-4096
8192
0
4096
-4096
8192
0
4096
-4096
8192
0
4096
-4096
8192
0
4096
-4096
8192
0
4096
-4096
8192
0
4096
-4096
8192
0
4096
-4096
8192
0
4096
-4096
8192
0
4096
-4096
8192
0
4096
-4096
8192
0
4096
-4096
8192
0
4096
-4096
8192
0
4096
-4096
8192
0
4096
-4096
8192
0
4096
-4096
8192
0
4096
-4096
8192
0
4096
-4096
8192
0
4096
-4096
8192
0
4096
-4096
8192
0
4096
-4096
8192
0
4096
-4096
8192
0
4096
-4096
8192
0
4096
-4096
8192
0
4096
-4096
8192
0
4096
-4096
8192
0
4096
-4096
8192
0
4096
-4096
8192
0
4096
-4096
8192
0
4096
-4096
8192
0
4096
-4096
8192
0
4096
-4096
8192
0
4096
-4096
8192
0
4096
-4096
8192
0
4096
-4096
8192
0
4096
-4096
8192
0
4096
-4096
8192
0
4096
-4096
8192
0
4096
-4096
8192
0
4096
-4096
8192
0
4096
-4096
8192
0
4096
-4096
8192
0
4096
-4096
8192
0
4096
-4096
8192
0
4096
-4096
8192
0
4096
-4096
8192
0
4096
-4096
8192
0
4096
-4096
8192
0
4096
-4096
8192
0
4096
-4096
8192
0
4096
-4096
8192
0
4096
-4096
8192
0
4096
-4096
8192
0
4096
-4096
8192
0
4096
-4096
8192
0
4096
-4096
8192
0
4096
-4096
8192
0
4096
-4096
8192
0
4096
-4096
8192
0
4096
-4096
8192
0
4096
-4096
8192
0
4096
-4096
8192
0
4096
-4096
8192
0
4096
-4096
8192
0
4096
-4096
8192
0
4096
-4096
8192
0
4096
-4096
8192
0
4096
-4096
8192
0
4096
-4096
8192
0
4096
-4096
8192
0
4096
-4096
8192
0
4096
-4096
8192
0
4096
-4096
8192
0
4096
-4096
8192
0
4096
-4096
8192
0
4096
-4096
8192
0
4096
-4096
8192
0
4096
-4096
8192
0
4096
-4096
8192
0
4096
-4096
8192
0
4096
-4096
8192
0
4096
-4096
8192
0
4096
-4096
8192
0
4096
-4096
8192
0
4096
-4096
8192
0
4096
-4096
8192
0
4096
-4096
8192
0
4096
-4096
8192
0
4096
-4096
8192
0
4096
-4096
8192
0
4096
-4096
8192
0
4096
-4096
8192
0
4096
-4096
8192
0
4096
-4096
8192
0
4096
-4096
8192
0
4096
-4096
8192
0
4096
-4096
8192
0
4096
-4096
8192
0
4096
-4096
8192
0
4096
-4096
8192
0
4096
-4096
8192
0
4096
-4096
8192
0
4096
-4096
8192
0
4096
-4096
8192
0
4096
-4096
8192
0
4096
-4096
8192
0
4096
-4096
8192
0
4096
-4096
8192
0
4096
-4096
8192
0
4096
-4096
8192
0
4096
-4096
8192
0
4096
-4096
8192
0
4096
-4096
8192
0
4096
-4096
8192
0
4096
-4096
8192
0
4096
-4096
8192
0
4096
-4096
8192
0
4096
-4096
8192
0
4096
-4096
8192
0
4096
-4096
8192
0
4096
-4096
8192
0
4096
-4096
8192
0
4096
-4096
8192
0
4096
-4096
8192
0
4096
-4096
8192
0
4096
-4096
8192
0
4096
-4096
8192
0
4096
-4096
8192
0
4096
-4096
8192
0
4096
-4096
8192
0
4096
-4096
8192
0
4096
-4096
8192
0
4096
-4096
8192
0
4096
-4096
8192
0
4096
-4096
8192
0
4096
-4096
8192
0
4096
-4096
8192
0
4096
-4096
8192
0
4096
-4096
8192
0
4096
-4096
8192
0
4096
-4096
8192
0
4096
-4096
8192
0
4096
-4096
8192
0
4096
-4096
8192
0
4096
-4096
8192
0
4096
-4096
8192
0
4096
-4096
8192
0
4096
-4096
8192
0
4096
-4096
8192
0
4096
-4096
8192
0
4096
-4096
8192
0
4096
-4096
8192
0
4096
-4096
8192
0
4096
-4096
8192
0
4096
-4096
8192
0
4096
-4096
8192
0
4096
-4096
8192
0
4096
-4096
8192
0
4096
-4096
8192
0
4096
-4096
8192
0
4096
-4096
8192
0
4096
-4096
8192
0
4096
-4096
8192
0
4096
-4096
8192
0
4096
-4096
8192
0
4096
-4096
8192
0
4096
-4096
8192
0
4096
-4096
8192
0
4096
-4096
8192
0
4096
-4096
8192
0
4096
-4096
8192
0
4096
-4096
8192
0
4096
-4096
8192
0
4096
-4096
8192
0
4096
-4096
8192
0
4096
-4096
8192
0
4096
-4096
8192
0
4096
-4096
8192
0
4096
-4096
8192
0
4096
-4096
8192
0
4096
-4096
8192
0
4096
-4096
8192
0
4096
-4096
8192
0
4096
-4096
8192
0
4096
-4096
8192
0
4096
-4096
8192
0
4096
-4096
8192
0
4096
-4096
8192
0
4096
-4096
8192
0
4096
-4096
8192
0
4096
-4096
8192
0
4096
-4096
8192
0
4096
-4096
8192
0
4096
-4096
8192
0
4096
-4096
8192
0
4096
-4096
8192
0
4096
-4096
8192
0
4096
-4096
8192
0
4096
-4096
8192
0
4096
-4096
8192
0
4096
-4096
8192
0
4096
-4096
8192
0
4096
-4096
8192
0
4096
-4096
8192
0
4096
-4096
8192
0
4096
-4096
8192
0
4096
-4096
8192
0
4096
-4096
8192
0
4096
-4096
8192
0
4096
-4096
8192
0
4096
-4096
8192
0
4096
-4096
8192
0
4096
-4096
8192
0
4096
-4096
8192
0
4096
-4096
8192
0
4096
-4096
8192
0
4096
-4096
8192
0
4096
-4096
8192
0
4096
-4096
8192
0
4096
-4096
8192
0
4096
-4096
8192
0
4096
-4096
8192
0
4096
-4096
8192
0
4096
-4096
8192
0
4096
-4096
8192
0
4096
-4096
8192
0
4096
-4096
8192
0
4096
-4096
8192
0
4096
-4096
8192
0
4096
-4096
8192
0
4096
-4096
8192
0
4096
-4096
8192
0
4096
-4096
8192
0
4096
-4096
8192
0
4096
-4096
8192
0
4096
-4096
8192
0
4096
-4096
8192
0
4096
-4096
8192
0
4096
-4096
8192
0
4096
-4096
8192
0
4096
-4096
8192
0
4096
-4096
8192
0
4096
-4096
8192
0
4096
-4096
8192
0
4096
-4096
8192
0
4096
-4096
8192
0
4096
-4096
8192
0
4096
-4096
8192
0
4096
-4096
8192
0
4096
-4096
8192
0
4096
-4096
8192
0
4096
-4096
8192
0
4096
-4096
8192
0
4096
-4096
8192
0
4096
-4096
8192
0
4096
-4096
8192
0
4096
-4096
8192
0
4096
-4096
8192
0
4096
-4096
8192
0
4096
-4096
8192
0
4096
-4096
8192
0
4096
-4096
8192
0
4096
-4096
8192
0
4096
-4096
8192
0
4096
-4096
8192
0
4096
-4096
8192
0
4096
-4096
8192
0
4096
-4096
8192
0
4096
-4096
8192
0
4096
-4096
8192
0
4096
-4096
8192
0
4096
-4096
8192
0
4096
-4096
8192
0
4096
-4096
8192
0
4096
-4096
8192
0
4096
-4096
8192
0
4096
-4096
8192
0
4096
-4096
8192
0
4096
-4096
8192
0
4096
-4096
8192
0
4096
-4096
8192
0
4096
-4096
8192
0
4096
-4096
8192
0
4096
-4096
8192
0
4096
-4096
8192
0
4096
-4096
8192
0
4096
-4096
8192
0
4096
-4096
8192
0
4096
-4096
8192
0
4096
-4096
8192
0
4096
-4096
8192
0
4096
-4096
8192
0
4096
-4096
8192
0
4096
-4096
8192
0
4096
-4096
8192
0
4096
-4096
8192
0
4096
-4096
8192
0
4096
-4096
8192
0
4096
-4096
8192
0
4096
-4096
8192
0
4096
-4096
8192
0
4096
-4096
8192
0
4096
-4096
8192
0
4096
-4096
8192
0
4096
-4096
8192
0
4096
-4096
8192
0
4096
-4096
8192
0
4096
-4096
8192
0
4096
-4096
8192
0
4096
-4096
8192
0
4096
-4096
8192
0
4096
-4096
8192
0
4096
-4096
8192
0
4096
-4096
8192
0
4096
-4096
8192
0
4096
-4096
8192
0
4096
-4096
8192
0
4096
-4096
8192
0
4096
-4096
8192
0
4096
-4096
8192
0
4096
-4096
8192
0
4096
-4096
8192
0
4096
-4096
8192
0
4096
-4096
8192
0
4096
-4096
8192
0
4096
-4096
8192
0
4096
-4096
8192
0
4096
-4096
8192
0
4096
-4096
8192
0
4096
-4096
8192
0
4096
-4096
8192
0
4096
-4096
8192
0
4096
-4096
8192
0
4096
-4096
8192
0
4096
-4096
8192
0
4096
-4096
8192
0
4096
-4096
8192
0
4096
-4096
8192
0
4096
-4096
8192
0
4096
-4096
8192
0
4096
-4096
8192
0
4096
-4096
8192
0
4096
-4096
8192
0
4096
-4096
8192
0
4096
-4096
8192
0
4096
-4096
8192
0
4096
-4096
8192
0
4096
-4096
8192
0
4096
-4096
8192
0
4096
-4096
8192
0
4096
-4096
8192
0
4096
-4096
8192
0
4096
-4096
8192
0
4096
-4096
8192
0
4096
-4096
8192
0
4096
-4096
8192
0
4096
-4096
8192
0
4096
-4096
8192
0
4096
-4096
8192
0
4096
-4096
8192
0
4096
-4096
8192
0
4096
-4096
8192
0
4096
-4096
8192
0
4096
-4096
8192
0
4096
-4096
8192
0
4096
-4096
8192
0
4096
-4096
8192
0
4096
-4096
8192
0
4096
-4096
8192
0
4096
-4096
8192
0
4096
-4096
8192
0
4096
-4096
8192
0
4096
-4096
8192
0
4096
-4096
8192
0
4096
-4096
8192
0
4096
-4096
8192
0
4096
-4096
8192
0
4096
-4096
8192
0
4096
-4096
8192
0
4096
-4096
8192
0
4096
-4096
8192
0
4096
-4096
8192
0
4096
-4096
8192
0
4096
-4096
8192
0
4096
-4096
8192
0
4096
-4096
8192
0
4096
-4096
8192
0
4096
-4096
8192
0
4096
-4096
8192
0
4096
-4096
8192
0
4096
-4096
8192
0
4096
-4096
8192
0
4096
-4096
8192
0
4096
-4096
8192
0
4096
-4096
8192
0
4096
-4096
8192
0
4096
-4096
8192
0
4096
-4096
8192
0
4096
-4096
8192
0
4096
-4096
8192
0
4096
-4096
8192
0
4096
-4096
8192
0
4096
-4096
8192
0
4096
-4096
8192
0
4096
-4096
8192
0
4096
-4096
8192
0
4096
-4096
8192
0
4096
-4096
8192
0
4096
-4096
8192
0
4096
-4096
8192
0
4096
-4096
8192
0
4096
-4096
8192
0
4096
-4096
8192
0
4096
-4096
8192
0
4096
-4096
8192
0
4096
-4096
8192
0
4096
-4096
8192
0
4096
-4096
8192
0
4096
-4096
8192
0
4096
-4096
8192
0
4096
-4096
8192
0
4096
-4096
8192
0
4096
-4096
8192
0
4096
-4096
8192
0
4096
-4096
8192
0
4096
-4096
8192
0
4096
-4096
8192
0
4096
-4096
8192
0
4096
-4096
8192
0
4096
-4096
8192
0
4096
-4096
8192
0
4096
-4096
8192
0
4096
-4096
8192
0
4096
-4096
8192
0
4096
-4096
8192
0
4096
-4096
8192
0
4096
-4096
8192
0
4096
-4096
8192
0
4096
-4096
8192
0
4096
-4096
8192
0
4096
-4096
8192
0
4096
-4096
8192
0
4096
-4096
8192
0
4096
-4096
8192
0
4096
-4096
8192
0
4096
-4096
8192
0
4096
-4096
8192
0
4096
-4096
8192
0
4096
-4096
8192
0
4096
-4096
8192
0
4096
-4096
8192
0
4096
-4096
8192
0
4096
-4096
8192
0
4096
-4096
8192
0
4096
-4096
8192
0
4096
-4096
8192
0
4096
-4096
8192
0
4096
-4096
8192
0
4096
-4096
8192
0
4096
-4096
8192
0
4096
-4096
8192
0
4096
-4096
8192
0
4096
-4096
8192
0
4096
-4096
8192
0
4096
-4096
8192
0
4096
-4096
8192
0
4096
-4096
8192
0
4096
-4096
8192
0
4096
-4096
8192
0
4096
-4096
8192
0
4096
-4096
8192
0
4096
-4096
8192
0
4096
-4096
8192
0
4096
-4096
8192
0
4096
-4096
8192
0
4096
-4096
8192
0
4096
-4096
8192
0
4096
-4096
8192
0
4096
-4096
8192
0
4096
-4096
8192
0
4096
-4096
8192
0
4096
-4096
8192
0
4096
-4096
8192
0
4096
-4096
8192
0
4096
-4096
8192
0
4096
-4096
8192
0
4096
-4096
8192
0
4096
-4096
8192
0
4096
-4096
8192
0
4096
-4096
8192
0
4096
-4096
8192
0
4096
-4096
8192
0
4096
-4096
8192
0
4096
-4096
8192
0
4096
-4096
8192
0
4096
-4096
8192
0
4096
-4096
8192
0
4096
-4096
8192
0
4096
-4096
8192
0
4096
-4096
8192
0
4096
-4096
8192
0
4096
-4096
8192
0
4096
-4096
8192
0
4096
-4096
8192
0
4096
-4096
8192
0
4096
-4096
8192
0
4096
-4096
8192
0
4096
-4096
8192
0
4096
-4096
8192
0
4096
-4096
8192
0
4096
-4096
8192
0
4096
-4096
8192
0
4096
-4096
8192
0
4096
-4096
8192
0
4096
-4096
8192
0
4096
-4096
8192
0
4096
-4096
8192
0
4096
-4096
8192
0
4096
-4096
8192
0
4096
-4096
8192
0
4096
-4096
8192
0
4096
-4096
8192
0
4096
-4096
8192
0
4096
-4096
8192
0
4096
-4096
8192
0
4096
-4096
8192
0
4096
-4096
8192
0
4096
-4096
8192
0
4096
-4096
8192
0
4096
-4096
8192
0
4096
-4096
8192
0
4096
-4096
8192
0
4096
-4096
8192
0
4096
-4096
8192
0
4096
-4096
8192
0
4096
-4096
8192
0
4096
-4096
8192
0
4096
-4096
8192
0
4096
-4096
8192
0
4096
-4096
8192
0
4096
-4096
8192
0
4096
-4096
8192
0
4096
-4096
8192
0
4096
-4096
8192
0
4096
-4096
8192
0
4096
-4096
8192
0
4096
-4096
8192
0
4096
-4096
8192
0
4096
-4096
8192
0
4096
-4096
8192
0
4096
-4096
8192
0
4096
-4096
8192
0
4096
-4096
8192
0
4096
-4096
8192
0
4096
-4096
8192
0
4096
-4096
8192
0
4096
-4096
8192
0
4096
-4096
8192
0
4096
-4096
8192
0
4096
-4096
8192
0
4096
-4096
8192
0
4096
-4096
8192
0
4096
-4096
8192
0
4096
-4096
8192
0
4096
-4096
8192
0
4096
-4096
8192
0
4096
-4096
8192
0
4096
-4096
8192
0
4096
-4096
8192
0
4096
-4096
8192
0
4096
-4096
8192
0
4096
-4096
8192
0
4096
-4096
8192
0
4096
-4096
8192
0
4096
-4096
8192
0
4096
-4096
8192
0
4096
-4096
8192
0
4096
-4096
8192
0
4096
-4096
8192
0
4096
-4096
8192
0
4096
-4096
8192
0
4096
-4096
8192
0
4096
-4096
8192
0
4096
-4096
8192
0
4096
-4096
8192
0
4096
-4096
8192
0
4096
-4096
8192
0
4096
-4096
8192
0
4096
-4096
8192
0
4096
-4096
8192
0
4096
-4096
8192
0
4096
-4096
8192
0
4096
-4096
8192
0
4096
-4096
8192
0
4096
-4096
8192
0
4096
-4096
8192
0
4096
-4096
8192
0
4096
-4096
8192
0
4096
-4096
8192
0
4096
-4096
8192
0
4096
-4096
8192
0
4096
-4096
8192
0
4096
-4096
8192
0
4096
-4096
8192
0
4096
-4096
8192
0
4096
-4096
8192
0
4096
-4096
8192
0
4096
-4096
8192
0
4096
-4096
8192
0
4096
-4096
8192
0
4096
-4096
8192
0
4096
-4096
8192
0
4096
-4096
8192
0
4096
-4096
8192
0
4096
-4096
8192
0
4096
-4096
8192
0
4096
-4096
8192
0
4096
-4096
8192
0
4096
-4096
8192
0
4096
-4096
8192
0
4096
-4096
8192
0
4096
-4096
8192
0
4096
-4096
8192
0
4096
-4096
8192
0
4096
-4096
8192
0
4096
-4096
8192
0
4096
-4096
8192
0
4096
-4096
8192
0
4096
-4096
8192
0
4096
-4096
8192
0
4096
-4096
8192
0
4096
-4096
8192
0
4096
-4096
8192
0
4096
-4096
8192
0
4096
-4096
8192
0
4096
-4096
8192
0
4096
-4096
8192
0
4096
-4096
8192
0
4096
-4096
8192
0
4096
-4096
8192
0
4096
-4096
8192
0
4096
-4096
8192
0
4096
-4096
8192
0
4096
-4096
8192
0
4096
-4096
8192
0
4096
-4096
8192
0
4096
-4096
8192
0
4096
-4096
8192
0
4096
-4096
8192
0
4096
-4096
8192
0
4096
-4096
8192
0
4096
-4096
8192
0
4096
-4096
8192
0
4096
-4096
8192
0
4096
-4096
8192
0
4096
-4096
8192
0
4096
-4096
8192
0
4096
-4096
8192
0
4096
-4096
8192
0
4096
-4096
8192
0
4096
-4096
8192
0
4096
-4096
8192
0
4096
-4096
8192
0
4096
-4096
8192
0
4096
-4096
8192
0
4096
-4096
8192
0
4096
-4096
8192
0
4096
-4096
8192
0
4096
-4096
8192
0
4096
-4096
8192
0
4096
-4096
8192
0
4096
-4096
8192
0
4096
-4096
8192
0
4096
-4096
8192
0
4096
-4096
8192
0
4096
-4096
8192
0
4096
-4096
8192
0
4096
-4096
8192
0
4096
-4096
8192
0
4096
-4096
8192
0
4096
-4096
8192
0
4096
-4096
8192
0
4096
-4096
8192
0
4096
-4096
8192
0
4096
-4096
8192
0
4096
-4096
8192
0
4096
-4096
8192
0
4096
-4096
8192
0
4096
-4096
8192
0
4096
-4096
8192
0
4096
-4096
8192
0
4096
-4096
8192
0
4096
-4096
8192
0
4096
-4096
8192
0
4096
-4096
8192
0
4096
-4096
8192
0
4096
-4096
8192
0
4096
-4096
8192
0
4096
-4096
8192
0
4096
-4096
8192
0
4096
-4096
8192
0
4096
-4096
8192
0
4096
-4096
8192
0
4096
-4096
8192
0
4096
-4096
8192
0
4096
-4096
8192
0
4096
-4096
8192
0
4096
-4096
8192
0
4096
-4096
8192
0
4096
-4096
8192
0
4096
-4096
8192
0
4096
-4096
8192
0
4096
-4096
8192
0
4096
-4096
8192
0
4096
-4096
8192
0
4096
-4096
8192
0
4096
-4096
8192
0
4096
-4096
8192
0
4096
-4096
8192
0
4096
-4096
8192
0
4096
-4096
8192
0
4096
-4096
8192
0
4096
-4096
8192
0
4096
-4096
8192
0
4096
-4096
8192
0
4096
-4096
8192
0
4096
-4096
8192
0
4096
-4096
8192
0
4096
-4096
8192
0
4096
-4096
8192
0
4096
-4096
8192
0
4096
-4096
8192
0
4096
-4096
8192
0
4096
-4096
8192
0
4096
-4096
8192
0
4096
-4096
8192
0
4096
-4096
8192
0
4096
-4096
8192
0
4096
-4096
8192
0
4096
-4096
8192
0
4096
-4096
8192
0
4096
-4096
8192
0
4096
-4096
8192
0
4096
-4096
8192
0
4096
-4096
8192
0
4096
-4096
8192
0
4096
-4096
8192
0
4096
-4096
8192
0
4096
-4096
8192
0
4096
-4096
8192
0
4096
-4096
8192
0
4096
-4096
8192
0
4096
-4096
8192
0
4096
-4096
8192
0
4096
-4096
8192
0
4096
-4096
8192
0
4096
-4096
8192
0
4096
-4096
8192
0
4096
-4096
8192
0
4096
-4096
8192
0
4096
-4096
8192
0
4096
-4096
8192
0
4096
-4096
8192
0
4096
-4096
8192
0
4096
-4096
8192
0
4096
-4096
8192
0
4096
-4096
8192
0
4096
-4096
8192
0
4096
-4096
8192
0
4096
-4096
8192
0
4096
-4096
8192
0
4096
-4096
8192
0
4096
-4096
8192
0
4096
-4096
8192
0
4096
-4096
8192
0
4096
-4096
8192
0
4096
-4096
8192
0
4096
-4096
8192
0
4096
-4096
8192
0
4096
-4096
8192
0
4096
-4096
8192
0
4096
-4096
8192
0
4096
-4096
8192
0
4096
-4096
8192
0
4096
-4096
8192
0
4096
-4096
8192
0
4096
-4096
8192
0
4096
-4096
8192
0
4096
-4096
8192
0
4096
-4096
8192
0
4096
-4096
8192
0
4096
-4096
8192
0
4096
-4096
8192
0
4096
-4096
8192
0
4096
-4096
8192
0
4096
-4096
8192
0
4096
-4096
8192
0
4096
-4096
8192
0
4096
-4096
8192
0
4096
-4096
8192
0
4096
-4096
8192
0
4096
-4096
8192
0
4096
-4096
8192
0
4096
-4096
8192
0
4096
-4096
8192
0
4096
-4096
8192
0
4096
-4096
8192
0
4096
-4096
8192
0
4096
-4096
8192
0
4096
-4096
8192
0
4096
-4096
8192
0
4096
-4096
8192
0
4096
-4096
8192
0
4096
-4096
8192
0
4096
-4096
8192
0
4096
-4096
8192
0
4096
-4096
8192
0
4096
-4096
8192
0
4096
-4096
8192
0
4096
-4096
8192
0
4096
-4096
8192
0
4096
-4096
8192
0
4096
-4096
8192
0
4096
-4096
8192
0
4096
-4096
8192
0
4096
-4096
8192
0
4096
-4096
8192
0
4096
-4096
8192
0
4096
-4096
8192
0
4096
-4096
8192
0
4096
-4096
8192
0
4096
-4096
8192
0
4096
-4096
8192
0
4096
-4096
8192
0
4096
-4096
8192
0
4096
-4096
8192
0
4096
-4096
8192
0
4096
-4096
8192
0
4096
-4096
8192
0
4096
-4096
8192
0
4096
-4096
8192
0
4096
-4096
8192
0
4096
-4096
8192
0
4096
-4096
8192
0
4096
-4096
8192
0
4096
-4096
8192
0
4096
-4096
8192
0
4096
-4096
8192
0
4096
-4096
8192
0
4096
-4096
8192
0
4096
-4096
8192
0
4096
-4096
8192
0
4096
-4096
8192
0
4096
-4096
8192
0
4096
-4096
8192
0
4096
-4096
8192
0
4096
-4096
8192
0
4096
-4096
8192
0
4096
-4096
8192
0
4096
-4096
8192
0
4096
-4096
8192
0
4096
-4096
8192
0
4096
-4096
8192
0
4096
-4096
8192
0
4096
-4096
8192
0
4096
-4096
8192
0
4096
-4096
8192
0
4096
-4096
8192
0
4096
-4096
8192
0
4096
-4096
8192
0
4096
-4096
8192
0
4096
-4096
8192
0
4096
-4096
8192
0
4096
-4096
8192
0
4096
-4096
8192
0
4096
-4096
8192
0
4096
-4096
8192
0
4096
-4096
8192
0
4096
-4096
8192
0
4096
-4096
8192
0
4096
-4096
8192
0
4096
-4096
8192
0
4096
-4096
8192
0
4096
-4096
8192
0
4096
-4096
8192
0
4096
-4096
8192
0
4096
-4096
8192
0
4096
-4096
8192
0
4096
-4096
8192
0
4096
-4096
8192
0
4096
-4096
8192
0
4096
-4096
8192
0
4096
-4096
8192
0
4096
-4096
8192
0
4096
-4096
8192
0
4096
-4096
8192
0
4096
-4096
8192
0
4096
-4096
8192
0
4096
-4096
8192
0
4096
-4096
8192
0
4096
-4096
8192
0
4096
-4096
8192
0
4096
-4096
8192
0
4096
-4096
8192
0
4096
-4096
8192
0
4096
-4096
8192
0
4096
-4096
8192
0
4096
-4096
8192
0
4096
-4096
8192
0
4096
-4096
8192
0
4096
-4096
8192
0
4096
-4096
8192
0
4096
-4096
8192
0
4096
-4096
8192
0
4096
-4096
8192
0
4096
-4096
8192
0
4096
-4096
8192
0
4096
-4096
8192
0
4096
-4096
8192
0
4096
-4096
8192
0
4096
-4096
8192
0
4096
-4096
8192
0
4096
-4096
8192
0
4096
-4096
8192
0
4096
-4096
8192
0
4096
-4096
8192
0
4096
-4096
8192
0
4096
-4096
8192
0
4096
-4096
8192
0
4096
-4096
8192
0
4096
-4096
8192
0
4096
-4096
8192
0
4096
-4096
8192
0
4096
-4096
8192
0
4096
-4096
8192
0
4096
-4096
8192
0
4096
-4096
8192
0
4096
-4096
8192
0
4096
-4096
8192
0
4096
-4096
8192
0
4096
-4096
8192
0
4096
-4096
8192
0
4096
-4096
8192
0
4096
-4096
8192
0
4096
-4096
8192
0
4096
-4096
8192
0
4096
-4096
8192
0
4096
-4096
8192
0
4096
-4096
8192
0
4096
-4096
8192
0
4096
-4096
8192
0
4096
-4096
8192
0
4096
-4096
8192
0
4096
-4096
8192
0
4096
-4096
8192
0
4096
-4096
8192
0
4096
-4096
8192
0
4096
-4096
8192
0
4096
-4096
8192
0
4096
-4096
8192
0
4096
-4096
8192
0
4096
-4096
8192
0
4096
-4096
8192
0
4096
-4096
8192
0
4096
-4096
8192
0
4096
-4096
8192
0
4096
-4096
8192
0
4096
-4096
8192
0
4096
-4096
8192
0
4096
-4096
8192
0
4096
-4096
8192
0
4096
-4096
8192
0
4096
-4096
8192
0
4096
-4096
8192
0
4096
-4096
8192
0
4096
-4096
8192
0
4096
-4096
8192
0
4096
-4096
8192
0
4096
-4096
8192
0
4096
-4096
8192
0
4096
-4096
8192
0
4096
-4096
8192
0
4096
-4096
8192
0
4096
-4096
8192
0
4096
-4096
8192
0
4096
-4096
8192
0
4096
-4096
8192
0
4096
-4096
8192
0
4096
-4096
8192
0
4096
-4096
8192
0
4096
-4096
8192
0
4096
-4096
8192
0
4096
-4096
8192
0
4096
-4096
8192
0
4096
-4096
8192
0
4096
-4096
8192
0
4096
-4096
8192
0
4096
-4096
8192
0
4096
-4096
8192
0
4096
-4096
8192
0
4096
-4096
8192
0
4096
-4096
8192
0
4096
-4096
8192
0
4096
-4096
8192
0
4096
-4096
8192
0
4096
-4096
8192
0
4096
-4096
8192
0
4096
-4096
8192
0
4096
-4096
8192
0
4096
-4096
8192
0
4096
-4096
8192
0
4096
-4096
8192
0
4096
-4096
8192
0
4096
-4096
8192
0
4096
-4096
8192
0
4096
-4096
8192
0
4096
-4096
8192
0
4096
-4096
8192
0
4096
-4096
8192
0
4096
-4096
8192
0
4096
-4096
8192
0
4096
-4096
8192
0
4096
-4096
8192
0
4096
-4096
8192
0
4096
-4096
8192
0
4096
-4096
8192
0
4096
-4096
8192
0
4096
-4096
8192
0
4096
-4096
8192
0
4096
-4096
8192
0
4096
-4096
8192
0
4096
-4096
8192
0
4096
-4096
8192
0
4096
-4096
8192
0
4096
-4096
8192
0
4096
-4096
8192
0
4096
-4096
8192
0
4096
-4096
8192
0
4096
-4096
8192
0
4096
-4096
8192
0
4096
-4096
8192
0
4096
-4096
8192
0
4096
-4096
8192
0
4096
-4096
8192
0
4096
-4096
8192
0
4096
-4096
8192
0
4096
-4096
8192
0
4096
-4096
8192
0
4096
-4096
8192
0
4096
-4096
8192
0
4096
-4096
8192
0
4096
-4096
8192
0
4096
-4096
8192
0
4096
-4096
8192
0
4096
-4096
8192
0
4096
-4096
8192
0
4096
-4096
8192
0
4096
-4096
8192
0
4096
-4096
8192
0
4096
-4096
8192
0
4096
-4096
8192
0
4096
-4096
8192
0
4096
-4096
8192
0
4096
-4096
8192
0
4096
-4096
8192
0
4096
-4096
8192
0
4096
-4096
8192
0
4096
-4096
8192
0
4096
-4096
8192
0
4096
-4096
8192
0
4096
-4096
8192
0
4096
-4096
8192
0
4096
-4096
8192
0
4096
-4096
8192
0
4096
-4096
8192
0
4096
-4096
8192
0
4096
-4096
8192
0
4096
-4096
8192
0
4096
-4096
8192
0
4096
-4096
8192
0
4096
-4096
8192
0
4096
-4096
8192
0
4096
-4096
8192
0
4096
-4096
8192
0
4096
-4096
8192
0
4096
-4096
8192
0
4096
-4096
8192
0
4096
-4096
8192
0
4096
-4096
8192
0
4096
-4096
8192
0
4096
-4096
8192
0
4096
-4096
8192
0
4096
-4096
8192
0
4096
-4096
8192
0
4096
-4096
8192
0
4096
-4096
8192
0
4096
-4096
8192
0
4096
-4096
8192
0
4096
-4096
8192
0
4096
-4096
8192
0
4096
-4096
8192
0
4096
-4096
8192
0
4096
-4096
8192
0
4096
-4096
8192
0
4096
-4096
8192
0
4096
-4096
8192
0
4096
-4096
8192
0
4096
-4096
8192
0
4096
-4096
8192
0
4096
-4096
8192
0
4096
-4096
8192
0
4096
-4096
8192
0
4096
-4096
8192
0
4096
-4096
8192
0
4096
-4096
8192
0
4096
-4096
8192
0
4096
-4096
8192
0
4096
-4096
8192
0
4096
-4096
8192
0
4096
-4096
8192
0
4096
-4096
8192
0
4096
-4096
8192
0
4096
-4096
8192
0
4096
-4096
8192
0
4096
-4096
8192
0
4096
-4096
8192
0
4096
-4096
8192
0
4096
-4096
8192
0
4096
-4096
8192
0
4096
-4096
8192
0
4096
-4096
8192
0
4096
-4096
8192
0
4096
-4096
8192
0
4096
-4096
8192
0
4096
-4096
8192
0
4096
-4096
8192
0
4096
-4096
8192
0
4096
-4096
8192
0
4096
-4096
8192
0
4096
-4096
8192
0
4096
-4096
8192
0
4096
-4096
8192
0
4096
-4096
8192
0
4096
-4096
8192
0
4096
-4096
8192
0
4096
-4096
8192
0
4096
-4096
8192
0
4096
-4096
8192
0
4096
-4096
8192
0
4096
-4096
8192
0
4096
-4096
8192
0
4096
-4096
8192
0
4096
-4096
8192
0
4096
-4096
8192
0
4096
-4096
8192
0
4096
-4096
8192
0
4096
-4096
8192
0
4096
-4096
8192
0
4096
-4096
8192
0
4096
-4096
8192
0
4096
-4096
8192
0
4096
-4096
8192
0
4096
-4096
8192
0
4096
-4096
8192
0
4096
-4096
8192
0
4096
-4096
8192
0
4096
-4096
8192
0
4096
-4096
8192
0
4096
-4096
8192
0
4096
-4096
8192
0
4096
-4096
8192
0
4096
-4096
8192
0
4096
-4096
8192
0
4096
-4096
8192
0
4096
-4096
8192
0
4096
-4096
8192
0
4096
-4096
8192
0
4096
-4096
8192
0
4096
-4096
8192
0
4096
-4096
8192
0
4096
-4096
8192
0
4096
-4096
8192
0
4096
-4096
8192
0
4096
-4096
8192
0
4096
-4096
8192
0
4096
-4096
8192
0
4096
-4096
8192
0
4096
-4096
8192
0
4096
-4096
8192
0
4096
-4096
8192
0
4096
-4096
8192
0
4096
-4096
8192
0
4096
-4096
8192
0
4096
-4096
8192
0
4096
-4096
8192
0
4096
-4096
8192
0
4096
-4096
8192
0
4096
-4096
8192
0
4096
-4096
8192
0
4096
-4096
8192
0
4096
-4096
8192
0
4096
-4096
8192
0
4096
-4096
8192
0
4096
-4096
8192
0
4096
-4096
8192
0
4096
-4096
8192
0
4096
-4096
8192
0
4096
-4096
8192
0
4096
-4096
8192
0
4096
-4096
8192
0
4096
-4096
8192
0
4096
-4096
8192
0
4096
-4096
8192
0
4096
-4096
8192
0
4096
-4096
8192
0
4096
-4096
8192
0
4096
-4096
8192
0
4096
-4096
8192
0
4096
-4096
8192
0
4096
-4096
8192
0
4096
-4096
8192
0
4096
-4096
8192
0
4096
-4096
8192
0
4096
-4096
8192
0
4096
-4096
8192
0
4096
-4096
8192
0
4096
-4096
8192
0
4096
-4096
8192
0
4096
-4096
8192
0
4096
-4096
8192
0
4096
-4096
8192
0
4096
-4096
8192
0
4096
-4096
8192
0
4096
-4096
8192
0
4096
-4096
8192
0
4096
-4096
8192
0
4096
-4096
8192
0
4096
-4096
8192
0
4096
-4096
8192
0
4096
-4096
8192
0
4096
-4096
8192
0
4096
-4096
8192
0
4096
-4096
8192
0
4096
-4096
8192
0
4096
-4096
8192
0
4096
-4096
8192
0
4096
-4096
8192
0
4096
-4096
8192
0
4096
-4096
8192
0
4096
-4096
8192
0
4096
-4096
8192
0
4096
-4096
8192
0
4096
-4096
8192
0
4096
-4096
8192
0
4096
-4096
8192
0
4096
-4096
8192
0
4096
-4096
8192
0
4096
-4096
8192
0
4096
-4096
8192
0
4096
-4096
8192
0
4096
-4096
8192
0
4096
-4096
8192
0
4096
-4096
8192
0
4096
-4096
8192
0
4096
-4096
8192
0
4096
-4096
8192
0
4096
-4096
8192
0
4096
-4096
8192
0
4096
-4096
8192
0
4096
-4096
8192
0
4096
-4096
8192
0
4096
-4096
8192
0
4096
-4096
8192
0
4096
-4096
8192
0
4096
-4096
8192
0
4096
-4096
8192
0
4096
-4096
8192
0
4096
-4096
8192
0
4096
-4096
8192
0
4096
-4096
8192
0
4096
-4096
8192
0
4096
-4096
8192
0
4096
-4096
8192
0
4096
-4096
8192
0
4096
-4096
8192
0
4096
-4096
8192
0
4096
-4096
8192
0
4096
-4096
8192
0
4096
-4096
8192
0
4096
-4096
8192
0
4096
-4096
8192
0
4096
-4096
8192
0
4096
-4096
8192
0
4096
-4096
8192
0
4096
-4096
8192
0
4096
-4096
8192
0
4096
-4096
8192
0
4096
-4096
8192
0
4096
-4096
8192
0
4096
-4096
8192
0
4096
-4096
8192
0
4096
-4096
8192
0
4096
-4096
8192
0
4096
-4096
8192
0
4096
-4096
8192
0
4096
-4096
8192
0
4096
-4096
8192
0
4096
-4096
8192
0
4096
-4096
8192
0
4096
-4096
8192
0
4096
-4096
8192
0
4096
-4096
8192
0
4096
-4096
8192
0
4096
-4096
8192
0
4096
-4096
8192
0
4096
-4096
8192
0
4096
-4096
8192
0
4096
-4096
8192
0
4096
-4096
8192
0
4096
-4096
8192
0
4096
-4096
8192
0
4096
-4096
8192
0
4096
-4096
8192
0
4096
-4096
8192
0
4096
-4096
8192
0
4096
-4096
8192
0
4096
-4096
8192
0
4096
-4096
8192
0
4096
-4096
8192
0
4096
-4096
8192
0
4096
-4096
8192
0
4096
-4096
8192
0
4096
-4096
8192
0
4096
-4096
8192
0
4096
-4096
8192
0
4096
-4096
8192
0
4096
-4096
8192
0
4096
-4096
8192
0
4096
-4096
8192
0
4096
-4096
8192
0
4096
-4096
8192
0
4096
-4096
8192
0
4096
-4096
8192
0
4096
-4096
8192
0
4096
-4096
8192
0
4096
-4096
8192
0
4096
-4096
8192
0
4096
-4096
8192
0
4096
-4096
8192
0
4096
-4096
8192
0
4096
-4096
8192
0
4096
-4096
8192
0
4096
-4096
8192
0
4096
-4096
8192
0
4096
-4096
8192
0
4096
-4096
8192
0
4096
-4096
8192
0
4096
-4096
8192
0
4096
-4096
8192
0
4096
-4096
8192
0
4096
-4096
8192
0
4096
-4096
8192
0
4096
-4096
8192
0
4096
-4096
8192
0
4096
-4096
8192
0
4096
-4096
8192
0
4096
-4096
8192
0
4096
-4096
8192
0
4096
-4096
8192
0
4096
-4096
8192
0
4096
-4096
8192
0
4096
-4096
8192
0
4096
-4096
8192
0
4096
-4096
8192
0
4096
-4096
8192
0
4096
-4096
8192
0
4096
-4096
8192
0
4096
-4096
8192
0
4096
-4096
8192
0
4096
-4096
8192
0
4096
-4096
8192
0
4096
-4096
8192
0
4096
-4096
8192
0
4096
-4096
8192
0
4096
-4096
8192
0
4096
-4096
8192
0
4096
-4096
8192
0
4096
-4096
8192
0
4096
-4096
8192
0
4096
-4096
8192
0
4096
-4096
8192
0
4096
-4096
8192
0
4096
-4096
8192
0
4096
-4096
8192
0
4096
-4096
8192
0
4096
-4096
8192
0
4096
-4096
8192
0
4096
-4096
8192
0
4096
-4096
8192
0
4096
-4096
8192
0
4096
-4096
8192
0
4096
-4096
8192
0
4096
-4096
8192
0
4096
-4096
8192
0
4096
-4096
8192
0
4096
-4096
8192
0
4096
-4096
8192
0
4096
-4096
8192
0
4096
-4096
8192
0
4096
-4096
8192
0
4096
-4096
8192
0
4096
-4096
8192
0
4096
-4096
8192
0
4096
-4096
8192
0
4096
-4096
8192
0
4096
-4096
8192
0
4096
-4096
8192
0
4096
-4096
8192
0
4096
-4096
8192
0
4096
-4096
8192
0
4096
-4096
8192
0
4096
-4096
8192
0
4096
-4096
8192
0
4096
-4096
8192
0
4096
-4096
8192
0
4096
-4096
8192
0
4096
-4096
8192
0
4096
-4096
8192
0
4096
-4096
8192
0
4096
-4096
8192
0
4096
-4096
8192
0
4096
-4096
8192
0
4096
-4096
8192
0
4096
-4096
8192
0
4096
-4096
8192
0
4096
-4096
8192
0
4096
-4096
8192
0
4096
-4096
8192
0
4096
-4096
8192
0
4096
-4096
8192
0
4096
-4096
8192
0
4096
-4096
8192
0
4096
-4096
8192
0
4096
-4096
8192
0
4096
-4096
8192
0
4096
-4096
8192
0
4096
-4096
8192
0
4096
-4096
8192
0
4096
-4096
8192
0
4096
-4096
8192
0
4096
-4096
8192
0
4096
-4096
8192
0
4096
-4096
8192
0
4096
-4096
8192
0
4096
-4096
8192
0
4096
-4096
8192
0
4096
-4096
8192
0
4096
-4096
8192
0
4096
-4096
8192
0
4096
-4096
8192
0
4096
-4096
8192
0
4096
-4096
8192
0
4096
-4096
8192
0
4096
-4096
8192
0
4096
-4096
8192
0
4096
-4096
8192
0
4096
-4096
8192
0
4096
-4096
8192
0
4096
-4096
8192
0
4096
-4096
8192
0
4096
-4096
8192
0
4096
-4096
8192
0
4096
-4096
8192
0
4096
-4096
8192
0
4096
-4096
8192
0
4096
-4096
8192
0
4096
-4096
8192
0
4096
-4096
8192
0
4096
-4096
8192
0
4096
-4096
8192
0
4096
-4096
8192
0
4096
-4096
8192
0
4096
-4096
8192
0
4096
-4096
8192
0
4096
-4096
8192
0
4096
-4096
8192
0
4096
-4096
8192
0
4096
-4096
8192
0
4096
-4096
8192
0
4096
-4096
8192
0
4096
-4096
8192
0
4096
-4096
8192
0
4096
-4096
8192
0
4096
-4096
8192
0
4096
-4096
8192
0
4096
-4096
8192
0
4096
-4096
8192
0
4096
-4096
8192
0
4096
-4096
8192
0
4096
-4096
8192
0
4096
-4096
8192
0
4096
-4096
8192
0
4096
-4096
8192
0
4096
-4096
8192
0
4096
-4096
8192
0
4096
-4096
8192
0
4096
-4096
8192
0
4096
-4096
8192
0
4096
-4096
8192
0
4096
-4096
8192
0
4096
-4096
8192
0
4096
-4096
8192
0
4096
-4096
8192
0
4096
-4096
8192
0
4096
-4096
8192
0
4096
-4096
8192
0
4096
-4096
8192
0
4096
-4096
8192
0
4096
-4096
8192
0
4096
-4096
8192
0
4096
-4096
8192
0
4096
-4096
8192
0
4096
-4096
8192
0
4096
-4096
8192
0
4096
-4096
8192
0
4096
-4096
8192
0
4096
-4096
8192
0
4096
-4096
8192
0
4096
-4096
8192
0
4096
-4096
8192
0
4096
-4096
8192
0
4096
-4096
8192
0
4096
-4096
8192
0
4096
-4096
8192
0
4096
-4096
8192
0
4096
-4096
8192
0
4096
-4096
8192
0
4096
-4096
8192
0
4096
-4096
8192
0
4096
-4096
8192
0
4096
-4096
8192
0
4096
-4096
8192
0
4096
-4096
8192
0
4096
-4096
8192
0
4096
-4096
8192
0
4096
-4096
8192
0
4096
-4096
8192
0
4096
-4096
8192
0
4096
-4096
8192
0
4096
-4096
8192
0
4096
-4096
8192
0
4096
-4096
8192
0
4096
-4096
8192
0
4096
-4096
8192
0
4096
-4096
8192
0
4096
-4096
8192
0
4096
-4096
8192
0
4096
-4096
8192
0
4096
-4096
8192
0
4096
-4096
8192
0
4096
-4096
8192
0
4096
-4096
8192
0
4096
-4096
8192
0
4096
-4096
8192
0
4096
-4096
8192
0
4096
-4096
8192
0
4096
-4096
8192
0
4096
-4096
8192
0
4096
-4096
8192
0
4096
-4096
8192
0
4096
-4096
8192
0
4096
-4096
8192
0
4096
-4096
8192
0
4096
-4096
8192
0
4096
-4096
8192
0
4096
-4096
8192
0
4096
-4096
8192
0
4096
-4096
8192
0
4096
-4096
8192
0
4096
-4096
8192
0
4096
-4096
8192
0
4096
-4096
8192
0
4096
-4096
8192
0
4096
-4096
8192
0
4096
-4096
8192
0
4096
-4096
8192
0
4096
-4096
8192
0
4096
-4096
8192
0
4096
-4096
8192
0
4096
-4096
8192
0
4096
-4096
8192
0
4096
-4096
8192
0
4096
-4096
8192
0
4096
-4096
8192
0
4096
-4096
8192
0
4096
-4096
8192
0
4096
-4096
8192
0
4096
-4096
8192
0
4096
-4096
8192
0
4096
-4096
8192
0
4096
-4096
8192
0
4096
-4096
8192
0
4096
-4096
8192
0
4096
-4096
8192
0
4096
-4096
8192
0
4096
-4096
8192
0
4096
-4096
8192
0
4096
-4096
8192
0
4096
-4096
8192
0
4096
-4096
8192
0
4096
-4096
8192
0
4096
-4096
8192
0
4096
-4096
8192
0
4096
-4096
8192
0
4096
-4096
8192
0
4096
-4096
8192
0
4096
-4096
8192
0
4096
-4096
8192
0
4096
-4096
8192
0
4096
-4096
8192
0
4096
-4096
8192
0
4096
-4096
8192
0
4096
-4096
8192
0
4096
-4096
8192
0
4096
-4096
8192
0
4096
-4096
8192
0
4096
-4096
8192
0
4096
-4096
8192
0
4096
-4096
8192
0
4096
-4096
8192
0
4096
-4096
8192
0
4096
-4096
8192
0
4096
-4096
8192
0
4096
-4096
8192
0
4096
-4096
8192
0
4096
-4096
8192
0
4096
-4096
8192
0
4096
-4096
8192
0
4096
-4096
8192
0
4096
-4096
8192
0
4096
-4096
8192
0
4096
-4096
8192
0
4096
-4096
8192
0
4096
-4096
8192
0
4096
-4096
8192
0
4096
-4096
8192
0
4096
-4096
8192
0
4096
-4096
8192
0
4096
-4096
8192
0
4096
-4096
8192
0
4096
-4096
8192
0
4096
-4096
8192
0
4096
-4096
8192
0
4096
-4096
8192
0
4096
-4096
8192
0
4096
-4096
8192
0
4096
-4096
8192
0
4096
-4096
8192
0
4096
-4096
8192
0
4096
-4096
8192
0
4096
-4096
8192
0
4096
-4096
8192
0
4096
-4096
8192
0
4096
-4096
8192
0
4096
-4096
8192
0
4096
-4096
8192
0
4096
-4096
8192
0
4096
-4096
8192
0
4096
-4096
8192
0
4096
-4096
8192
0
4096
-4096
8192
0
4096
-4096
8192
0
4096
-4096
8192
0
4096
-4096
8192
0
4096
-4096
8192
0
4096
-4096
8192
0
4096
-4096
8192
0
4096
-4096
8192
0
4096
-4096
8192
0
4096
-4096
8192
0
4096
-4096
8192
0
4096
-4096
8192
0
4096
-4096
8192
0
4096
-4096
8192
0
4096
-4096
8192
0
4096
-4096
8192
0
4096
-4096
8192
0
4096
-4096
8192
0
4096
-4096
8192
0
4096
-4096
8192
0
4096
-4096
8192
0
4096
-4096
8192
0
4096
-4096
8192
0
4096
-4096
8192
0
4096
-4096
8192
0
4096
-4096
8192
0
4096
-4096
8192
0
4096
-4096
8192
0
4096
-4096
8192
0
4096
-4096
8192
0
4096
-4096
8192
0
4096
-4096
8192
0
4096
-4096
8192
0
4096
-4096
8192
0
4096
-4096
8192
0
4096
-4096
8192
0
4096
-4096
8192
0
4096
-4096
8192
0
4096
-4096
8192
0
4096
-4096
8192
0
4096
-4096
8192
0
4096
-4096
8192
0
4096
-4096
8192
0
4096
-4096
8192
0
4096
-4096
8192
0
4096
-4096
8192
0
4096
-4096
8192
0
4096
-4096
8192
0
4096
-4096
8192
0
4096
-4096
8192
0
4096
-4096
8192
0
4096
-4096
8192
0
4096
-4096
8192
0
4096
-4096
8192
0
4096
-4096
8192
0
4096
-4096
8192
0
4096
-4096
8192
0
4096
-4096
8192
0
4096
-4096
8192
0
4096
-4096
8192
0
4096
-4096
8192
0
4096
-4096
8192
0
4096
-4096
8192
0
4096
-4096
8192
0
4096
-4096
8192
0
4096
-4096
8192
0
4096
-4096
8192
0
4096
-4096
8192
0
4096
-4096
8192
0
4096
-4096
8192
0
4096
-4096
8192
0
4096
-4096
8192
0
4096
-4096
8192
0
4096
-4096
8192
0
4096
-4096
8192
0
4096
-4096
8192
0
4096
-4096
8192
0
4096
-4096
8192
0
4096
-4096
8192
0
4096
-4096
8192
0
4096
-4096
8192
0
4096
-4096
8192
0
4096
-4096
8192
0
4096
-4096
8192
0
4096
-4096
8192
0
4096
-4096
8192
0
4096
-4096
8192
0
4096
-4096
8192
0
4096
-4096
8192
0
4096
-4096
8192
0
4096
-4096
8192
0
4096
-4096
8192
0
4096
-4096
8192
0
4096
-4096
8192
0
4096
-4096
8192
0
4096
-4096
8192
0
4096
-4096
8192
0
4096
-4096
8192
0
4096
-4096
8192
0
4096
-4096
8192
0
4096
-4096
8192
0
4096
-4096
8192
0
4096
-4096
8192
0
4096
-4096
8192
0
4096
-4096
8192
0
4096
-4096
8192
0
4096
-4096
8192
0
4096
-4096
8192
0
4096
-4096
8192
0
4096
-4096
8192
0
4096
-4096
8192
0
4096
-4096
8192
0
4096
-4096
8192
0
4096
-4096
8192
0
4096
-4096
8192
0
4096
-4096
8192
0
4096
-4096
8192
0
4096
-4096
8192
0
4096
-4096
8192
0
4096
-4096
8192
0
4096
-4096
8192
0
4096
-4096
8192
0
4096
-4096
8192
0
4096
-4096
8192
0
4096
-4096
8192
0
4096
-4096
8192
0
4096
-4096
8192
0
4096
-4096
8192
0
4096
-4096
8192
0
4096
-4096
8192
0
4096
-4096
8192
0
4096
-4096
8192
0
4096
-4096
8192
0
4096
-4096
8192
0
4096
-4096
8192
0
4096
-4096
8192
0
4096
-4096
8192
0
4096
-4096
8192
0
4096
-4096
8192
0
4096
-4096
8192
0
4096
-4096
8192
0
4096
-4096
8192
0
4096
-4096
8192
0
4096
-4096
8192
0
4096
-4096
8192
0
4096
-4096
8192
0
4096
-4096
8192
0
4096
-4096
8192
0
4096
-4096
8192
0
4096
-4096
8192
0
4096
-4096
8192
0
4096
-4096
8192
0
4096
-4096
8192
0
4096
-4096
8192
0
4096
-4096
8192
0
4096
-4096
8192
0
4096
-4096
8192
0
4096
-4096
8192
0
4096
-4096
8192
0
4096
-4096
8192
0
4096
-4096
8192
0
4096
-4096
8192
0
4096
-4096
8192
0
4096
-4096
8192
0
4096
-4096
8192
0
4096
-4096
8192
0
4096
-4096
8192
0
4096
-4096
8192
0
4096
-4096
8192
0
4096
-4096
8192
0
4096
-4096
8192
0
4096
-4096
8192
0
4096
-4096
8192
0
4096
-4096
8192
0
4096
-4096
8192
0
4096
-4096
8192
0
4096
-4096
8192
0
4096
-4096
8192
0
4096
-4096
8192
0
4096
-4096
8192
0
4096
-4096
8192
0
4096
-4096
8192
0
4096
-4096
8192
0
4096
-4096
8192
0
4096
-4096
8192
0
4096
-4096
8192
0
4096
-4096
8192
0
4096
-4096
8192
0
4096
-4096
8192
0
4096
-4096
8192
0
4096
-4096
8192
0
4096
-4096
8192
0
4096
-4096
8192
0
4096
-4096
8192
0
4096
-4096
8192
0
4096
-4096
8192
0
4096
-4096
8192
0
4096
-4096
8192
0
4096
-4096
8192
0
4096
-4096
8192
0
4096
-4096
8192
0
4096
-4096
8192
0
4096
-4096
8192
0
4096
-4096
8192
0
4096
-4096
8192
0
4096
-4096
8192
0
4096
-4096
8192
0
4096
-4096
8192
0
4096
-4096
8192
0
4096
-4096
8192
0
4096
-4096
8192
0
4096
-4096
8192
0
4096
-4096
8192
0
4096
-4096
8192
0
4096
-4096
8192
0
4096
-4096
8192
0
4096
-4096
8192
0
4096
-4096
8192
0
4096
-4096
8192
0
4096
-4096
8192
0
4096
-4096
8192
0
4096
-4096
8192
0
4096
-4096
8192
0
4096
-4096
8192
0
4096
-4096
8192
0
4096
-4096
8192
0
4096
-4096
8192
0
4096
-4096
8192
0
4096
-4096
8192
0
4096
-4096
8192
0
4096
-4096
8192
0
4096
-4096
8192
0
4096
-4096
8192
0
4096
-4096
8192
0
4096
-4096
8192
0
4096
-4096
8192
0
4096
-4096
8192
0
4096
-4096
8192
0
4096
-4096
8192
0
4096
-4096
8192
0
4096
-4096
8192
0
4096
-4096
8192
0
4096
-4096
8192
0
4096
-4096
8192
0
4096
-4096
8192
0
4096
-4096
8192
0
4096
-4096
8192
0
4096
-4096
8192
0
4096
-4096
8192
0
4096
-4096
8192
0
4096
-4096
8192
0
4096
-4096
8192
0
4096
-4096
8192
0
4096
-4096
8192
0
4096
-4096
8192
0
4096
-4096
8192
0
4096
-4096
8192
0
4096
-4096
8192
0
4096
-4096
8192
0
4096
-4096
8192
0
4096
-4096
8192
0
4096
-4096
8192
0
4096
-4096
8192
0
4096
-4096
8192
0
4096
-4096
8192
0
4096
-4096
8192
0
4096
-4096
8192
0
4096
-4096
8192
0
4096
-4096
8192
0
4096
-4096
8192
0
4096
-4096
8192
0
4096
-4096
8192
0
4096
-4096
8192
0
4096
-4096
8192
0
4096
-4096
8192
0
4096
-4096
8192
0
4096
-4096
8192
0
4096
-4096
8192
0
4096
-4096
8192
0
4096
-4096
8192
0
4096
-4096
8192
0
4096
-4096
8192
0
4096
-4096
8192
0
4096
-4096
8192
0
4096
-4096
8192
0
4096
-4096
8192
0
4096
-4096
8192
0
4096
-4096
8192
0
4096
-4096
8192
0
4096
-4096
8192
0
4096
-4096
8192
0
4096
-4096
8192
0
4096
-4096
8192
0
4096
-4096
8192
0
4096
-4096
8192
0
4096
-4096
8192
0
4096
-4096
8192
0
4096
-4096
8192
0
4096
-4096
8192
0
4096
-4096
8192
0
4096
-4096
8192
0
4096
-4096
8192
0
4096
-4096
8192
0
4096
-4096
8192
0
4096
-4096
8192
0
4096
-4096
8192
0
4096
-4096
8192
0
4096
-4096
8192
0
4096
-4096
8192
0
4096
-4096
8192
0
4096
-4096
8192
0
4096
-4096
8192
0
4096
-4096
8192
0
4096
-4096
8192
0
4096
-4096
8192
0
4096
-4096
8192
0
4096
-4096
8192
0
4096
-4096
8192
0
4096
-4096
8192
0
4096
-4096
8192
0
4096
-4096
8192
0
4096
-4096
8192
0
4096
-4096
8192
0
4096
-4096
8192
0
4096
-4096
8192
0
4096
-4096
8192
0
4096
-4096
8192
0
4096
-4096
8192
0
4096
-4096
8192
0
4096
-4096
8192
0
4096
-4096
8192
0
4096
-4096
8192
0
4096
-4096
8192
0
4096
-4096
8192
0
4096
-4096
8192
0
4096
-4096
8192
0
4096
-4096
8192
0
4096
-4096
8192
0
4096
-4096
8192
0
4096
-4096
8192
0
4096
-4096
8192
0
4096
-4096
8192
0
4096
-4096
8192
0
4096
-4096
8192
0
4096
-4096
8192
0
4096
-4096
8192
0
4096
-4096
8192
0
4096
-4096
8192
0
4096
-4096
8192
0
4096
-4096
8192
0
4096
-4096
8192
0
4096
-4096
8192
0
4096
-4096
8192
0
4096
-4096
8192
0
4096
-4096
8192
0
4096
-4096
8192
0
4096
-4096
8192
0
4096
-4096
8192
0
4096
-4096
8192
0
4096
-4096
8192
0
4096
-4096
8192
0
4096
-4096
8192
0
4096
-4096
8192
0
4096
-4096
8192
0
4096
-4096
8192
0
4096
-4096
8192
0
4096
-4096
8192
0
4096
-4096
8192
0
4096
-4096
8192
0
4096
-4096
8192
0
4096
-4096
8192
0
4096
-4096
8192
0
4096
-4096
8192
0
4096
-4096
8192
0
4096
-4096
8192
0
4096
-4096
8192
0
4096
-4096
8192
0
4096
-4096
8192
0
4096
-4096
8192
0
4096
-4096
8192
0
4096
-4096
8192
0
4096
-4096
8192
0
4096
-4096
8192
0
4096
-4096
8192
0
4096
-4096
8192
0
4096
-4096
8192
0
4096
-4096
8192
0
4096
-4096
8192
0
4096
-4096
8192
0
4096
-4096
8192
0
4096
-4096
8192
0
4096
-4096
8192
0
4096
-4096
8192
0
4096
-4096
8192
0
4096
-4096
8192
0
4096
-4096
8192
0
4096
-4096
8192
0
4096
-4096
8192
0
4096
-4096
8192
0
4096
-4096
8192
0
4096
-4096
8192
0
4096
-4096
8192
0
4096
-4096
8192
0
4096
-4096
8192
0
4096
-4096
8192
0
4096
-4096
8192
0
4096
-4096
8192
0
4096
-4096
8192
0
4096
-4096
8192
0
4096
-4096
8192
0
4096
-4096
8192
0
4096
-4096
8192
0
4096
-4096
8192
0
4096
-4096
8192
0
4096
-4096
8192
0
4096
-4096
8192
0
4096
-4096
8192
0
4096
-4096
8192
0
4096
-4096
8192
0
4096
-4096
8192
0
4096
-4096
8192
0
4096
-4096
8192
0
4096
-4096
8192
0
4096
-4096
8192
0
4096
-4096
8192
0
4096
-4096
8192
0
4096
-4096
8192
0
4096
-4096
8192
0
4096
-4096
8192
0
4096
-4096
8192
0
4096
-4096
8192
0
4096
-4096
8192
0
4096
-4096
8192
0
4096
-4096
8192
0
4096
-4096
8192
0
4096
-4096
8192
0
4096
-4096
8192
0
4096
-4096
8192
0
4096
-4096
8192
0
4096
-4096
8192
0
4096
-4096
8192
0
4096
-4096
8192
0
4096
-4096
8192
0
4096
-4096
8192
0
4096
-4096
8192
0
4096
-4096
8192
0
4096
-4096
8192
0
4096
-4096
8192
0
4096
-4096
8192
0
4096
-4096
8192
0
4096
-4096
8192
0
4096
-4096
8192
0
4096
-4096
8192
0
4096
-4096
8192
0
4096
-4096
8192
0
4096
-4096
8192
0
4096
-4096
8192
0
4096
-4096
8192
0
4096
-4096
8192
0
4096
-4096
8192
0
4096
-4096
8192
0
4096
-4096
8192
0
4096
-4096
8192
0
4096
-4096
8192
0
4096
-4096
8192
0
4096
-4096
8192
0
4096
-4096
8192
0
4096
-4096
8192
0
4096
-4096
8192
0
4096
-4096
8192
0
4096
-4096
8192
0
4096
-4096
8192
0
4096
-4096
8192
0
4096
-4096
8192
0
4096
-4096
8192
0
4096
-4096
8192
0
4096
-4096
8192
0
4096
-4096
8192
0
4096
-4096
8192
0
4096
-4096
8192
0
4096
-4096
8192
0
4096
-4096
8192
0
4096
-4096
8192
0
4096
-4096
8192
0
4096
-4096
8192
0
4096
-4096
8192
0
4096
-4096
8192
0
4096
-4096
8192
0
4096
-4096
8192
0
4096
-4096
8192
0
4096
-4096
8192
0
4096
-4096
8192
0
4096
-4096
8192
0
4096
-4096
8192
0
4096
-4096
8192
0
4096
-4096
8192
0
4096
-4096
8192
0
4096
-4096
8192
0
4096
-4096
8192
0
4096
-4096
8192
0
4096
-4096
8192
0
4096
-4096
8192
0
4096
-4096
8192
0
4096
-4096
8192
0
4096
-4096
8192
0
4096
-4096
8192
0
4096
-4096
8192
0
4096
-4096
8192
0
4096
-4096
8192
0
4096
-4096
8192
0
4096
-4096
8192
0
4096
-4096
8192
0
4096
-4096
8192
0
4096
-4096
8192
0
4096
-4096
8192
0
4096
-4096
8192
0
4096
-4096
8192
0
4096
-4096
8192
0
4096
-4096
8192
0
4096
-4096
8192
0
4096
-4096
8192
0
4096
-4096
8192
0
4096
-4096
8192
0
4096
-4096
8192
0
4096
-4096
8192
0
4096
-4096
8192
0
4096
-4096
8192
0
4096
-4096
8192
0
4096
-4096
8192
0
4096
-4096
8192
0
4096
-4096
8192
0
4096
-4096
8192
0
4096
-4096
8192
0
4096
-4096
8192
0
4096
-4096
8192
0
4096
-4096
8192
0
4096
-4096
8192
0
4096
-4096
8192
0
4096
-4096
8192
0
4096
-4096
8192
0
4096
-4096
8192
0
4096
-4096
8192
0
4096
-4096
8192
0
4096
-4096
8192
0
4096
-4096
8192
0
4096
-4096
8192
0
4096
-4096
8192
0
4096
-4096
8192
0
4096
-4096
8192
0
4096
-4096
8192
0
4096
-4096
8192
0
4096
-4096
8192
0
4096
-4096
8192
0
4096
-4096
8192
0
4096
-4096
8192
0
4096
-4096
8192
0
4096
-4096
8192
0
4096
-4096
8192
0
4096
-4096
8192
0
4096
-4096
8192
0
4096
-4096
8192
0
4096
-4096
8192
0
4096
-4096
8192
0
4096
-4096
8192
0
4096
-4096
8192
0
4096
-4096
8192
0
4096
-4096
8192
0
4096
-4096
8192
0
4096
-4096
8192
0
4096
-4096
8192
0
4096
-4096
8192
0
4096
-4096
8192
0
4096
-4096
8192
0
4096
-4096
8192
0
4096
-4096
8192
0
4096
-4096
8192
0
4096
-4096
8192
0
4096
-4096
8192
0
4096
-4096
8192
0
4096
-4096
8192
0
4096
-4096
8192
0
4096
-4096
8192
0
4096
-4096
8192
0
4096
-4096
8192
0
4096
-4096
8192
0
4096
-4096
8192
0
4096
-4096
8192
0
4096
-4096
8192
0
4096
-4096
8192
0
4096
-4096
8192
0
4096
-4096
8192
0
4096
-4096
8192
0
4096
-4096
8192
0
4096
-4096
8192
0
4096
-4096
8192
0
4096
-4096
8192
0
4096
-4096
8192
0
4096
-4096
8192
0
4096
-4096
8192
0
4096
-4096
8192
0
4096
-4096
8192
0
4096
-4096
8192
0
4096
-4096
8192
0
4096
-4096
8192
0
4096
-4096
8192
0
4096
-4096
8192
0
4096
-4096
8192
0
4096
-4096
8192
0
4096
-4096
8192
0
4096
-4096
8192
0
4096
-4096
8192
0
4096
-4096
8192
0
4096
-4096
8192
0
4096
-4096
8192
0
4096
-4096
8192
0
4096
-4096
8192
0
4096
-4096
8192
0
4096
-4096
8192
0
4096
-4096
8192
0
4096
-4096
8192
0
4096
-4096
8192
0
4096
-4096
8192
0
4096
-4096
8192
0
4096
-4096
8192
0
4096
-4096
8192
0
4096
-4096
8192
0
4096
-4096
8192
0
4096
-4096
8192
0
4096
-4096
8192
0
4096
-4096
8192
0
4096
-4096
8192
0
4096
-4096
8192
0
4096
-4096
8192
0
4096
-4096
8192
0
4096
-4096
8192
0
4096
-4096
8192
0
4096
-4096
8192
0
4096
-4096
8192
0
4096
-4096
8192
0
4096
-4096
8192
0
4096
-4096
8192
0
4096
-4096
8192
0
4096
-4096
8192
0
4096
-4096
8192
0
4096
-4096
8192
0
4096
-4096
8192
0
4096
-4096
8192
0
4096
-4096
8192
0
4096
-4096
8192
0
4096
-4096
8192
0
4096
-4096
8192
0
4096
-4096
8192
0
4096
-4096
8192
0
4096
-4096
8192
0
4096
-4096
8192
0
4096
-4096
8192
0
4096
-4096
8192
0
4096
-4096
8192
0
4096
-4096
8192
0
4096
-4096
8192
0
4096
-4096
8192
0
4096
-4096
8192
0
4096
-4096
8192
0
4096
-4096
8192
0
4096
-4096
8192
0
4096
-4096
8192
0
4096
-4096
8192
0
4096
-4096
8192
0
4096
-4096
8192
0
4096
-4096
8192
0
4096
-4096
8192
0
4096
-4096
8192
0
4096
-4096
8192
0
4096
-4096
8192
0
4096
-4096
8192
0
4096
-4096
8192
0
4096
-4096
8192
0
4096
-4096
8192
0
4096
-4096
8192
0
4096
-4096
8192
0
4096
-4096
8192
0
4096
-4096
8192
0
4096
-4096
8192
0
4096
-4096
8192
0
4096
-4096
8192
0
4096
-4096
8192
0
4096
-4096
8192
0
4096
-4096
8192
0
4096
-4096
8192
0
4096
-4096
8192
0
4096
-4096
8192
0
4096
-4096
8192
0
4096
-4096
8192
0
4096
-4096
8192
0
4096
-4096
8192
0
4096
-4096
8192
0
4096
-4096
8192
0
4096
-4096
8192
0
4096
-4096
8192
0
4096
-4096
8192
0
4096
-4096
8192
0
4096
-4096
8192
0
4096
-4096
8192
0
4096
-4096
8192
0
4096
-4096
8192
0
4096
-4096
8192
0
4096
-4096
8192
0
4096
-4096
8192
0
4096
-4096
8192
0
4096
-4096
8192
0
4096
-4096
8192
0
4096
-4096
8192
0
4096
-4096
8192
0
4096
-4096
8192
0
4096
-4096
8192
0
4096
-4096
8192
0
4096
-4096
8192
0
4096
-4096
8192
0
4096
-4096
8192
0
4096
-4096
8192
0
4096
-4096
8192
0
4096
-4096
8192
0
4096
-4096
8192
0
4096
-4096
8192
0
4096
-4096
8192
0
4096
-4096
8192
0
4096
-4096
8192
0
4096
-4096
8192
0
4096
-4096
8192
0
4096
-4096
8192
0
4096
-4096
8192
0
4096
-4096
8192
0
4096
-4096
8192
0
4096
-4096
8192
0
4096
-4096
8192
0
4096
-4096
8192
0
4096
-4096
8192
0
4096
-4096
8192
0
4096
-4096
8192
0
4096
-4096
8192
0
4096
-4096
8192
0
4096
-4096
8192
0
4096
-4096
8192
0
4096
-4096
8192
0
4096
-4096
8192
0
4096
-4096
8192
0
4096
-4096
8192
0
4096
-4096
8192
0
4096
-4096
8192
0
4096
-4096
8192
0
4096
-4096
8192
0
4096
-4096
8192
0
4096
-4096
8192
0
4096
-4096
8192
0
4096
-4096
8192
0
4096
-4096
8192
0
4096
-4096
8192
0
4096
-4096
8192
0
4096
-4096
8192
0
4096
-4096
8192
0
4096
-4096
8192
0
4096
-4096
8192
0
4096
-4096
8192
0
4096
-4096
8192
0
4096
-4096
8192
0
4096
-4096
8192
0
4096
-4096
8192
0
4096
-4096
8192
0
4096
-4096
8192
0
4096
-4096
8192
0
4096
-4096
8192
0
4096
-4096
8192
0
4096
-4096
8192
0
4096
-4096
8192
0
4096
-4096
8192
0
4096
-4096
8192
0
4096
-4096
8192
0
4096
-4096
8192
0
4096
-4096
8192
0
4096
-4096
8192
0
4096
-4096
8192
0
4096
-4096
8192
0
4096
-4096
8192
0
4096
-4096
8192
0
4096
-4096
8192
0
4096
-4096
8192
0
4096
-4096
8192
0
4096
-4096
8192
0
4096
-4096
8192
0
4096
-4096
8192
0
4096
-4096
8192
0
4096
-4096
8192
0
4096
-4096
8192
0
4096
-4096
8192
0
4096
-4096
8192
0
4096
-4096
8192
0
4096
-4096
8192
0
4096
-4096
8192
0
4096
-4096
8192
0
4096
-4096
8192
0
4096
-4096
8192
0
4096
-4096
8192
0
4096
-4096
8192
0
4096
-4096
8192
0
4096
-4096
8192
0
4096
-4096
8192
0
4096
-4096
8192
0
4096
-4096
8192
0
4096
-4096
8192
0
4096
-4096
8192
0
4096
-4096
8192
0
4096
-4096
8192
0
4096
-4096
8192
0
4096
-4096
8192
0
4096
-4096
8192
0
4096
-4096
8192
0
4096
-4096
8192
0
4096
-4096
8192
0
4096
-4096
8192
0
4096
-4096
8192
0
4096
-4096
8192
0
4096
-4096
8192
0
4096
-4096
8192
0
4096
-4096
8192
0
4096
-4096
8192
0
4096
-4096
8192
0
4096
-4096
8192
0
4096
-4096
8192
0
4096
-4096
8192
0
4096
-4096
8192
0
4096
-4096
8192
0
4096
-4096
8192
0
4096
-4096
8192
0
4096
-4096
8192
0
4096
-4096
8192
0
4096
-4096
8192
0
4096
-4096
8192
0
4096
-4096
8192
0
4096
-4096
8192
0
4096
-4096
8192
0
4096
-4096
8192
0
4096
-4096
8192
0
4096
-4096
8192
0
4096
-4096
8192
0
4096
-4096
8192
0
4096
-4096
8192
0
4096
-4096
8192
0
4096
-4096
8192
0
4096
-4096
8192
0
4096
-4096
8192
0
4096
-4096
8192
0
4096
-4096
8192
0
4096
-4096
8192
0
4096
-4096
8192
0
4096
-4096
8192
0
4096
-4096
8192
0
4096
-4096
8192
0
4096
-4096
8192
0
4096
-4096
8192
0
4096
-4096
8192
0
4096
-4096
8192
0
4096
-4096
8192
0
4096
-4096
8192
0
4096
-4096
8192
0
4096
-4096
8192
0
4096
-4096
8192
0
4096
-4096
8192
0
4096
-4096
8192
0
4096
-4096
8192
0
4096
-4096
8192
0
4096
-4096
8192
0
4096
-4096
8192
0
4096
-4096
8192
0
4096
-4096
8192
0
4096
-4096
8192
0
4096
-4096
8192
0
4096
-4096
8192
0
4096
-4096
8192
0
4096
-4096
8192
0
4096
-4096
8192
0
4096
-4096
8192
0
4096
-4096
8192
0
4096
-4096
8192
0
4096
-4096
8192
0
4096
-4096
8192
0
4096
-4096
8192
0
4096
-4096
8192
0
4096
-4096
8192
0
4096
-4096
8192
0
4096
-4096
8192
0
4096
-4096
8192
0
4096
-4096
8192
0
4096
-4096
8192
0
4096
-4096
8192
0
4096
-4096
8192
0
4096
-4096
8192
0
4096
-4096
8192
0
4096
-4096
8192
0
4096
-4096
8192
0
4096
-4096
8192
0
4096
-4096
8192
0
4096
-4096
8192
0
4096
-4096
8192
0
4096
-4096
8192
0
4096
-4096
8192
0
4096
-4096
8192
0
4096
-4096
8192
0
4096
-4096
8192
0
4096
-4096
8192
0
4096
-4096
8192
0
4096
-4096
8192
0
4096
-4096
8192
0
4096
-4096
8192
0
4096
-4096
8192
0
4096
-4096
8192
0
4096
-4096
8192
0
4096
-4096
8192
0
4096
-4096
8192
0
4096
-4096
8192
0
4096
-4096
8192
0
4096
-4096
8192
0
4096
-4096
8192
0
4096
-4096
8192
0
4096
-4096
8192
0
4096
-4096
8192
0
4096
-4096
8192
0
4096
-4096
8192
0
4096
-4096
8192
0
4096
-4096
8192
0
4096
-4096
8192
0
4096
-4096
8192
0
4096
-4096
8192
0
4096
-4096
8192
0
4096
-4096
8192
0
4096
-4096
8192
0
4096
-4096
8192
0
4096
-4096
8192
0
4096
-4096
8192
0
4096
-4096
8192
0
4096
-4096
8192
0
4096
-4096
8192
0
4096
-4096
8192
0
4096
-4096
8192
0
4096
-4096
8192
0
4096
-4096
8192
0
4096
-4096
8192
0
4096
-4096
8192
0
4096
-4096
8192
0
4096
-4096
8192
0
4096
-4096
8192
0
4096
-4096
8192
0
4096
-4096
8192
0
4096
-4096
8192
0
4096
-4096
8192
0
4096
-4096
8192
0
4096
-4096
8192
0
4096
-4096
8192
0
4096
-4096
8192
0
4096
-4096
8192
0
4096
-4096
8192
0
4096
-4096
8192
0
4096
-4096
8192
0
4096
-4096
8192
0
4096
-4096
8192
0
4096
-4096
8192
0
4096
-4096
8192
0
4096
-4096
8192
0
4096
-4096
8192
0
4096
-4096
8192
0
4096
-4096
8192
0
4096
-4096
8192
0
4096
-4096
8192
0
4096
-4096
8192
0
4096
-4096
8192
0
4096
-4096
8192
0
4096
-4096
8192
0
4096
-4096
8192
0
4096
-4096
8192
0
4096
-4096
8192
0
4096
-4096
8192
0
4096
-4096
8192
0
4096
-4096
8192
0
4096
-4096
8192
0
4096
-4096
8192
0
4096
-4096
8192
0
4096
-4096
8192
0
4096
-4096
8192
0
4096
-4096
8192
0
4096
-4096
8192
0
4096
-4096
8192
0
4096
-4096
8192
0
4096
-4096
8192
0
4096
-4096
8192
0
4096
-4096
8192
0
4096
-4096
8192
0
4096
-4096
8192
0
4096
-4096
8192
0
4096
-4096
8192
0
4096
-4096
8192
0
4096
-4096
8192
0
4096
-4096
8192
0
4096
-4096
8192
0
4096
-4096
8192
0
4096
-4096
8192
0
4096
-4096
8192
0
4096
-4096
8192
0
4096
-4096
8192
0
4096
-4096
8192
0
4096
-4096
8192
0
4096
-4096
8192
0
4096
-4096
8192
0
4096
-4096
8192
0
4096
-4096
8192
0
4096
-4096
8192
0
4096
-4096
8192
0
4096
-4096
8192
0
4096
-4096
8192
0
4096
-4096
8192
0
4096
-4096
8192
0
4096
-4096
8192
0
4096
-4096
8192
0
4096
-4096
8192
0
4096
-4096
8192
0
4096
-4096
8192
0
4096
-4096
8192
0
4096
-4096
8192
0
4096
-4096
8192
0
4096
-4096
8192
0
4096
-4096
8192
0
4096
-4096
8192
0
4096
-4096
8192
0
4096
-4096
8192
0
4096
-4096
8192
0
4096
-4096
8192
0
4096
-4096
8192
0
4096
-4096
8192
0
4096
-4096
8192
0
4096
-4096
8192
0
4096
-4096
8192
0
4096
-4096
8192
0
4096
-4096
8192
0
4096
-4096
8192
0
4096
-4096
8192
0
4096
-4096
8192
0
4096
-4096
8192
0
4096
-4096
8192
0
4096
-4096
8192
0
4096
-4096
8192
0
4096
-4096
8192
0
4096
-4096
8192
0
4096
-4096
8192
0
4096
-4096
8192
0
4096
-4096
8192
0
4096
-4096
8192
0
4096
-4096
8192
0
4096
-4096
8192
0
4096
-4096
8192
0
4096
-4096
8192
0
4096
-4096
8192
0
4096
-4096
8192
0
4096
-4096
8192
0
4096
-4096
8192
0
4096
-4096
8192
0
4096
-4096
8192
0
4096
-4096
8192
0
4096
-4096
8192
0
4096
-4096
8192
0
4096
-4096
8192
0
4096
-4096
8192
0
4096
-4096
8192
0
4096
-4096
8192
0
4096
-4096
8192
0
4096
-4096
8192
0
4096
-4096
8192
0
4096
-4096
8192
0
4096
-4096
8192
0
4096
-4096
8192
0
4096
-4096
8192
0
4096
-4096
8192
0
4096
-4096
8192
0
4096
-4096
8192
0
4096
-4096
8192
0
4096
-4096
8192
0
4096
-4096
8192
0
4096
-4096
8192
0
4096
-4096
8192
0
4096
-4096
8192
0
4096
-4096
8192
0
4096
-4096
8192
0
4096
-4096
8192
0
4096
-4096
8192
0
4096
-4096
8192
0
4096
-4096
8192
0
4096
-4096
8192
0
4096
-4096
8192
0
4096
-4096
8192
0
4096
-4096
8192
0
4096
-4096
8192
0
4096
-4096
8192
0
4096
-4096
8192
0
4096
-4096
8192
0
4096
-4096
8192
0
4096
-4096
8192
0
4096
-4096
8192
0
4096
-4096
8192
0
4096
-4096
8192
0
4096
-4096
8192
0
4096
-4096
8192
0
4096
-4096
8192
0
4096
-4096
8192
0
4096
-4096
8192
0
4096
-4096
8192
0
4096
-4096
8192
0
4096
-4096
8192
0
4096
-4096
8192
0
4096
-4096
8192
0
4096
-4096
8192
0
4096
-4096
8192
0
4096
-4096
8192
0
4096
-4096
8192
0
4096
-4096
8192
0
4096
-4096
8192
0
4096
-4096
8192
0
4096
-4096
8192
0
4096
-4096
8192
0
4096
-4096
8192
0
4096
-4096
8192
0
4096
-4096
8192
0
4096
-4096
8192
0
4096
-4096
8192
0
4096
-4096
8192
0
4096
-4096
8192
0
4096
-4096
8192
0
4096
-4096
8192
0
4096
-4096
8192
0
4096
-4096
8192
0
4096
-4096
8192
0
4096
-4096
8192
0
4096
-4096
8192
0
4096
-4096
8192
0
4096
-4096
8192
0
4096
-4096
8192
0
4096
-4096
8192
0
4096
-4096
8192
0
4096
-4096
8192
0
4096
-4096
8192
0
4096
-4096
8192
0
4096
-4096
8192
0
4096
-4096
8192
0
4096
-4096
8192
0
4096
-4096
8192
0
4096
-4096
8192
0
4096
-4096
8192
0
4096
-4096
8192
0
4096
-4096
8192
0
4096
-4096
8192
0
4096
-4096
8192
0
4096
-4096
8192
0
4096
-4096
8192
0
4096
-4096
8192
0
4096
-4096
8192
0
4096
-4096
8192
0
4096
-4096
8192
0
4096
-4096
8192
0
4096
-4096
8192
0
4096
-4096
8192
0
4096
-4096
8192
0
4096
-4096
8192
0
4096
-4096
8192
0
4096
-4096
8192
0
4096
-4096
8192
0
4096
-4096
8192
0
4096
-4096
8192
0
4096
-4096
8192
0
4096
-4096
8192
0
4096
-4096
8192
0
4096
-4096
8192
0
4096
-4096
8192
0
4096
-4096
8192
0
4096
-4096
8192
0
4096
-4096
8192
0
4096
-4096
8192
0
4096
-4096
8192
0
4096
-4096
8192
0
4096
-4096
8192
0
4096
-4096
8192
0
4096
-4096
8192
0
4096
-4096
8192
0
4096
-4096
8192
0
4096
-4096
8192
0
4096
-4096
8192
0
4096
-4096
8192
0
4096
-4096
8192
0
4096
-4096
8192
0
4096
-4096
8192
0
4096
-4096
8192
0
4096
-4096
8192
0
4096
-4096
8192
0
4096
-4096
8192
0
4096
-4096
8192
0
4096
-4096
8192
0
4096
-4096
8192
0
4096
-4096
8192
0
4096
-4096
8192
0
4096
-4096
8192
0
4096
-4096
8192
0
4096
-4096
8192
0
4096
-4096
8192
0
4096
-4096
8192
0
4096
-4096
8192
0
4096
-4096
8192
0
4096
-4096
8192
0
4096
-4096
8192
0
4096
-4096
8192
0
4096
-4096
8192
0
4096
-4096
8192
0
4096
-4096
8192
0
4096
-4096
8192
0
4096
-4096
8192
0
4096
-4096
8192
0
4096
-4096
8192
0
4096
-4096
8192
0
4096
-4096
8192
0
4096
-4096
8192
0
4096
-4096
8192
0
4096
-4096
8192
0
4096
-4096
8192
0
4096
-4096
8192
0
4096
-4096
8192
0
4096
-4096
8192
0
4096
-4096
8192
0
4096
-4096
8192
0
4096
-4096
8192
0
4096
-4096
8192
0
4096
-4096
8192
0
4096
-4096
8192
0
4096
-4096
8192
0
4096
-4096
8192
0
4096
-4096
8192
0
4096
-4096
8192
0
4096
-4096
8192
0
4096
-4096
8192
0
4096
-4096
8192
0
4096
-4096
8192
0
4096
-4096
8192
0
4096
-4096
8192
0
4096
-4096
8192
0
4096
-4096
8192
0
4096
-4096
8192
0
4096
-4096
8192
0
4096
-4096
8192
0
4096
-4096
8192
0
4096
-4096
8192
0
4096
-4096
8192
0
4096
-4096
8192
0
4096
-4096
8192
0
4096
-4096
8192
0
4096
-4096
8192
0
4096
-4096
8192
0
4096
-4096
8192
0
4096
-4096
8192
0
4096
-4096
8192
0
4096
-4096
8192
0
4096
-4096
8192
0
4096
-4096
8192
0
4096
-4096
8192
0
4096
-4096
8192
0
4096
-4096
8192
0
4096
-4096
8192
0
4096
-4096
8192
0
4096
-4096
8192
0
4096
-4096
8192
0
4096
-4096
8192
0
4096
-4096
8192
0
4096
-4096
8192
0
4096
-4096
8192
0
4096
-4096
8192
0
4096
-4096
8192
0
4096
-4096
8192
0
4096
-4096
8192
0
4096
-4096
8192
0
4096
-4096
8192
0
4096
-4096
8192
0
4096
-4096
8192
0
4096
-4096
8192
0
4096
-4096
8192
0
4096
-4096
8192
0
4096
-4096
8192
0
4096
-4096
8192
0
4096
-4096
8192
0
4096
-4096
8192
0
4096
-4096
8192
0
4096
-4096
8192
0
4096
-4096
8192
0
4096
-4096
8192
0
4096
-4096
8192
0
4096
-4096
8192
0
4096
-4096
8192
0
4096
-4096
8192
0
4096
-4096
8192
0
4096
-4096
8192
0
4096
-4096
8192
0
4096
-4096
8192
0
4096
-4096
8192
0
4096
-4096
8192
0
4096
-4096
8192
0
4096
-4096
8192
0
4096
-4096
8192
0
4096
-4096
8192
0
4096
-4096
8192
0
4096
-4096
8192
0
4096
-4096
8192
0
4096
-4096
8192
0
4096
-4096
8192
0
4096
-4096
8192
0
4096
-4096
8192
0
4096
-4096
8192
0
4096
-4096
8192
0
4096
-4096
8192
0
4096
-4096
8192
0
4096
-4096
8192
0
4096
-4096
8192
0
4096
-4096
8192
0
4096
-4096
8192
0
4096
-4096
8192
0
4096
-4096
8192
0
4096
-4096
8192
0
4096
-4096
8192
0
4096
-4096
8192
0
4096
-4096
8192
0
4096
-4096
8192
0
4096
-4096
8192
0
4096
-4096
8192
0
4096
-4096
8192
0
4096
-4096
8192
0
4096
-4096
8192
0
4096
-4096
8192
0
4096
-4096
8192
0
4096
-4096
8192
0
4096
-4096
8192
0
4096
-4096
8192
0
4096
-4096
8192
0
4096
-4096
8192
0
4096
-4096
8192
0
4096
-4096
8192
0
4096
-4096
8192
0
4096
-4096
8192
0
4096
-4096
8192
0
4096
-4096
8192
0
4096
-4096
8192
0
4096
-4096
8192
0
4096
-4096
8192
0
4096
-4096
8192
0
4096
-4096
8192
0
4096
-4096
8192
0
4096
-4096
8192
0
4096
-4096
8192
0
4096
-4096
8192
0
4096
-4096
8192
0
4096
-4096
8192
0
4096
-4096
8192
0
4096
-4096
8192
0
4096
-4096
8192
0
4096
-4096
8192
0
4096
-4096
8192
0
4096
-4096
8192
0
4096
-4096
8192
0
4096
-4096
8192
0
4096
-4096
8192
0
4096
-4096
8192
0
4096
-4096
8192
0
4096
-4096
8192
0
4096
-4096
8192
0
4096
-4096
8192
0
4096
-4096
8192
0
4096
-4096
8192
0
4096
-4096
8192
0
4096
-4096
8192
0
4096
-4096
8192
0
4096
-4096
8192
0
4096
-4096
8192
0
4096
-4096
8192
0
4096
-4096
8192
0
4096
-4096
8192
0
4096
-4096
8192
0
4096
-4096
8192
0
4096
-4096
8192
0
4096
-4096
8192
0
4096
-4096
8192
0
4096
-4096
8192
0
4096
-4096
8192
0
4096
-4096
8192
0
4096
-4096
8192
0
4096
-4096
8192
0
4096
-4096
8192
0
4096
-4096
8192
0
4096
-4096
8192
0
4096
-4096
8192
0
4096
-4096
8192
0
4096
-4096
8192
0
4096
-4096
8192
0
4096
-4096
8192
0
4096
-4096
8192
0
4096
-4096
8192
0
4096
-4096
8192
0
4096
-4096
8192
0
4096
-4096
8192
0
4096
-4096
8192
0
4096
-4096
8192
0
4096
-4096
8192
0
4096
-4096
8192
0
4096
-4096
8192
0
4096
-4096
8192
0
4096
-4096
8192
0
4096
-4096
8192
0
4096
-4096
8192
0
4096
-4096
8192
0
4096
-4096
8192
0
4096
-4096
8192
0
4096
-4096
8192
0
4096
-4096
8192
0
4096
-4096
8192
0
4096
-4096
8192
0
4096
-4096
8192
0
4096
-4096
8192
0
4096
-4096
8192
0
4096
-4096
8192
0
4096
-4096
8192
0
4096
-4096
8192
0
4096
-4096
8192
0
4096
-4096
8192
0
4096
-4096
8192
0
4096
-4096
8192
0
4096
-4096
8192
0
4096
-4096
8192
0
4096
-4096
8192
0
4096
-4096
8192
0
4096
-4096
8192
0
4096
-4096
8192
0
4096
-4096
8192
0
4096
-4096
8192
0
4096
-4096
8192
0
4096
-4096
8192
0
4096
-4096
8192
0
4096
-4096
8192
0
4096
-4096
8192
0
4096
-4096
8192
0
4096
-4096
8192
0
4096
-4096
8192
0
4096
-4096
8192
0
4096
-4096
8192
0
4096
-4096
8192
0
4096
-4096
8192
0
4096
-4096
8192
0
4096
-4096
8192
0
4096
-4096
8192
0
4096
-4096
8192
0
4096
-4096
8192
0
4096
-4096
8192
0
4096
-4096
8192
0
4096
-4096
8192
0
4096
-4096
8192
0
4096
-4096
8192
0
4096
-4096
8192
0
4096
-4096
8192
0
4096
-4096
8192
0
4096
-4096
8192
0
4096
-4096
8192
0
4096
-4096
8192
0
4096
-4096
8192
0
4096
-4096
8192
0
4096
-4096
8192
0
4096
-4096
8192
0
4096
-4096
8192
0
4096
-4096
8192
0
4096
-4096
8192
0
4096
-4096
8192
0
4096
-4096
8192
0
4096
-4096
8192
0
4096
-4096
8192
0
4096
-4096
8192
0
4096
-4096
8192
0
4096
-4096
8192
0
4096
-4096
8192
0
4096
-4096
8192
0
4096
-4096
8192
0
4096
-4096
8192
0
4096
-4096
8192
0
4096
-4096
8192
0
4096
-4096
8192
0
4096
-4096
8192
0
4096
-4096
8192
0
4096
-4096
8192
0
4096
-4096
8192
0
4096
-4096
8192
0
4096
-4096
8192
0
4096
-4096
8192
0
4096
-4096
8192
0
4096
-4096
8192
0
4096
-4096
8192
0
4096
-4096
8192
0
4096
-4096
8192
0
4096
-4096
8192
0
4096
-4096
8192
0
4096
-4096
8192
0
4096
-4096
8192
0
4096
-4096
8192
0
4096
-4096
8192
0
4096
-4096
8192
0
4096
-4096
8192
0
4096
-4096
8192
0
4096
-4096
8192
0
4096
-4096
8192
0
4096
-4096
8192
0
4096
-4096
8192
0
4096
-4096
8192
0
4096
-4096
8192
0
4096
-4096
8192
0
4096
-4096
8192
0
4096
-4096
8192
0
4096
-4096
8192
0
4096
-4096
8192
0
4096
-4096
8192
0
4096
-4096
8192
0
4096
-4096
8192
0
4096
-4096
8192
0
4096
-4096
8192
0
4096
-4096
8192
0
4096
-4096
8192
0
4096
-4096
8192
0
4096
-4096
8192
0
4096
-4096
8192
0
4096
-4096
8192
0
4096
-4096
8192
0
4096
-4096
8192
0
4096
-4096
8192
0
4096
-4096
8192
0
4096
-4096
8192
0
4096
-4096
8192
0
4096
-4096
8192
0
4096
-4096
8192
0
4096
-4096
8192
0
4096
-4096
8192
0
4096
-4096
8192
0
4096
-4096
8192
0
4096
-4096
8192
0
4096
-4096
8192
0
4096
-4096
8192
0
4096
-4096
8192
0
4096
-4096
8192
0
4096
-4096
8192
0
4096
-4096
8192
0
4096
-4096
8192
0
4096
-4096
8192
0
4096
-4096
8192
0
4096
-4096
8192
0
4096
-4096
8192
0
4096
-4096
8192
0
4096
-4096
8192
0
4096
-4096
8192
0
4096
-4096
8192
0
4096
-4096
8192
0
4096
-4096
8192
0
4096
-4096
8192
0
4096
-4096
8192
0
4096
-4096
8192
0
4096
-4096
8192
0
4096
-4096
8192
0
4096
-4096
8192
0
4096
-4096
8192
0
4096
-4096
8192
0
4096
-4096
8192
0
4096
-4096
8192
0
4096
-4096
8192
0
4096
-4096
8192
0
4096
-4096
8192
0
4096
-4096
8192
0
4096
-4096
8192
0
4096
-4096
8192
0
4096
-4096
8192
0
4096
-4096
8192
0
4096
-4096
8192
0
4096
-4096
8192
0
4096
-4096
8192
0
4096
-4096
8192
0
4096
-4096
8192
0
4096
-4096
8192
0
4096
-4096
8192
0
4096
-4096
8192
0
4096
-4096
8192
0
4096
-4096
8192
0
4096
-4096
8192
0
4096
-4096
8192
0
4096
-4096
8192
0
4096
-4096
8192
0
4096
-4096
8192
0
4096
-4096
8192
0
4096
-4096
8192
0
4096
-4096
8192
0
4096
-4096
8192
0
4096
-4096
8192
0
4096
-4096
8192
0
4096
-4096
8192
0
4096
-4096
8192
0
4096
-4096
8192
0
4096
-4096
8192
0
4096
-4096
8192
0
4096
-4096
8192
0
4096
-4096
8192
0
4096
-4096
8192
0
4096
-4096
8192
0
4096
-4096
8192
0
4096
-4096
8192
0
4096
-4096
8192
0
4096
-4096
8192
0
4096
-4096
8192
0
4096
-4096
8192
0
4096
-4096
8192
0
4096
-4096
8192
0
4096
-4096
8192
0
4096
-4096
8192
0
4096
-4096
8192
0
4096
-4096
8192
0
4096
-4096
8192
0
4096
-4096
8192
0
4096
-4096
8192
0
4096
-4096
8192
0
4096
-4096
8192
0
4096
-4096
8192
0
4096
-4096
8192
0
4096
-4096
8192
0
4096
-4096
8192
0
4096
-4096
8192
0
4096
-4096
8192
0
4096
-4096
8192
0
4096
-4096
8192
0
4096
-4096
8192
0
4096
-4096
8192
0
4096
-4096
8192
0
4096
-4096
8192
0
4096
-4096
8192
0
4096
-4096
8192
0
4096
-4096
8192
0
4096
-4096
8192
0
4096
-4096
8192
0
4096
-4096
8192
0
4096
-4096
8192
0
4096
-4096
8192
0
4096
-4096
8192
0
4096
-4096
8192
0
4096
-4096
8192
0
4096
-4096
8192
0
4096
-4096
8192
0
4096
-4096
8192
0
4096
-4096
8192
0
4096
-4096
8192
0
4096
-4096
8192
0
4096
-4096
8192
0
4096
-4096
8192
0
4096
-4096
8192
0
4096
-4096
8192
0
4096
-4096
8192
0
4096
-4096
8192
0
4096
-4096
8192
0
4096
-4096
8192
0
4096
-4096
8192
0
4096
-4096
8192
0
4096
-4096
8192
0
4096
-4096
8192
0
4096
-4096
8192
0
4096
-4096
8192
0
4096
-4096
8192
0
4096
-4096
8192
0
4096
-4096
8192
0
4096
-4096
8192
0
4096
-4096
8192
0
4096
-4096
8192
0
4096
-4096
8192
0
4096
-4096
8192
0
4096
-4096
8192
0
4096
-4096
8192
0
4096
-4096
8192
0
4096
-4096
8192
0
4096
-4096
8192
0
4096
-4096
8192
0
4096
-4096
8192
0
4096
-4096
8192
0
4096
-4096
8192
0
4096
-4096
8192
0
4096
-4096
8192
0
4096
-4096
8192
0
4096
-4096
8192
0
4096
-4096
8192
0
4096
-4096
8192
0
4096
-4096
8192
0
4096
-4096
8192
0
4096
-4096
8192
0
4096
-4096
8192
0
4096
-4096
8192
0
4096
-4096
8192
0
4096
-4096
8192
0
4096
-4096
8192
0
4096
-4096
8192
0
4096
-4096
8192
0
4096
-4096
8192
0
4096
-4096
8192
0
4096
-4096
8192
0
4096
-4096
8192
0
4096
-4096
8192
0
4096
-4096
8192
0
4096
-4096
8192
0
4096
-4096
8192
0
4096
-4096
8192
0
4096
-4096
8192
0
4096
-4096
8192
0
4096
-4096
8192
0
4096
-4096
8192
0
4096
-4096
8192
0
4096
-4096
8192
0
4096
-4096
8192
0
4096
-4096
8192
0
4096
-4096
8192
0
4096
-4096
8192
0
4096
-4096
8192
0
4096
-4096
8192
0
4096
-4096
8192
0
4096
-4096
8192
0
4096
-4096
8192
0
4096
-4096
8192
0
4096
-4096
8192
0
4096
-4096
8192
0
4096
-4096
8192
0
4096
-4096
8192
0
4096
-4096
8192
0
4096
-4096
8192
0
4096
-4096
8192
0
4096
-4096
8192
0
4096
-4096
8192
0
4096
-4096
8192
0
4096
-4096
8192
0
4096
-4096
8192
0
4096
-4096
8192
0
4096
-4096
8192
0
4096
-4096
8192
0
4096
-4096
8192
0
4096
-4096
8192
0
4096
-4096
8192
0
4096
-4096
8192
0
4096
-4096
8192
0
4096
-4096
8192
0
4096
-4096
8192
0
4096
-4096
8192
0
4096
-4096
8192
0
4096
-4096
8192
0
4096
-4096
8192
0
4096
-4096
8192
0
4096
-4096
8192
0
4096
-4096
8192
0
4096
-4096
8192
0
4096
-4096
8192
0
4096
-4096
8192
0
4096
-4096
8192
0
4096
-4096
8192
0
4096
-4096
8192
0
4096
-4096
8192
0
4096
-4096
8192
0
4096
-4096
8192
0
4096
-4096
8192
0
4096
-4096
8192
0
4096
-4096
8192
0
4096
-4096
8192
0
4096
-4096
8192
0
4096
-4096
8192
0
4096
-4096
8192
0
4096
-4096
8192
0
4096
-4096
8192
0
4096
-4096
8192
0
4096
-4096
8192
0
4096
-4096
8192
0
4096
-4096
8192
0
4096
-4096
8192
0
4096
-4096
8192
0
4096
-4096
8192
0
4096
-4096
8192
0
4096
-4096
8192
0
4096
-4096
8192
0
4096
-4096
8192
0
4096
-4096
8192
0
4096
-4096
8192
0
4096
-4096
8192
0
4096
-4096
8192
0
4096
-4096
8192
0
4096
-4096
8192
0
4096
-4096
8192
0
4096
-4096
8192
0
4096
-4096
8192
0
4096
-4096
8192
0
4096
-4096
8192
0
4096
-4096
8192
0
4096
-4096
8192
0
4096
-4096
8192
0
4096
-4096
8192
0
4096
-4096
8192
0
4096
-4096
8192
0
4096
-4096
8192
0
4096
-4096
8192
0
4096
-4096
8192
0
4096
-4096
8192
0
4096
-4096
8192
0
4096
-4096
8192
0
4096
-4096
8192
0
4096
-4096
8192
0
4096
-4096
8192
0
4096
-4096
8192
0
4096
-4096
8192
0
4096
-4096
8192
0
4096
-4096
8192
0
4096
-4096
8192
0
4096
-4096
8192
0
4096
-4096
8192
0
4096
-4096
8192
0
4096
-4096
8192
0
4096
-4096
8192
0
4096
-4096
8192
0
4096
-4096
8192
0
4096
-4096
8192
0
4096
-4096
8192
0
4096
-4096
8192
0
4096
-4096
8192
0
4096
-4096
8192
0
4096
-4096
8192
0
4096
-4096
8192
0
4096
-4096
8192
0
4096
-4096
8192
0
4096
-4096
8192
0
4096
-4096
8192
0
4096
-4096
8192
0
4096
-4096
8192
0
4096
-4096
8192
0
4096
-4096
8192
0
4096
-4096
8192
0
4096
-4096
8192
0
4096
-4096
8192
0
4096
-4096
8192
0
4096
-4096
8192
0
4096
-4096
8192
0
4096
-4096
8192
0
4096
-4096
8192
0
4096
-4096
8192
0
4096
-4096
8192
0
4096
-4096
8192
0
4096
-4096
8192
0
4096
-4096
8192
0
4096
-4096
8192
0
4096
-4096
8192
0
4096
-4096
8192
0
4096
-4096
8192
0
4096
-4096
8192
0
4096
-4096
8192
0
4096
-4096
8192
0
4096
-4096
8192
0
4096
-4096
8192
0
4096
-4096
8192
0
4096
-4096
8192
0
4096
-4096
8192
0
4096
-4096
8192
0
4096
-4096
8192
0
4096
-4096
8192
0
4096
-4096
8192
0
4096
-4096
8192
0
4096
-4096
8192
0
4096
-4096
8192
0
4096
-4096
8192
0
4096
-4096
8192
0
4096
-4096
8192
0
4096
-4096
8192
0
4096
-4096
8192
0
4096
-4096
8192
0
4096
-4096
8192
0
4096
-4096
8192
0
4096
-4096
8192
0
4096
-4096
8192
0
4096
-4096
8192
0
4096
-4096
8192
0
4096
-4096
8192
0
4096
-4096
8192
0
4096
-4096
8192
0
4096
-4096
8192
0
4096
-4096
8192
0
4096
-4096
8192
0
4096
-4096
8192
0
4096
-4096
8192
0
4096
-4096
8192
0
4096
-4096
8192
0
4096
-4096
8192
0
4096
-4096
8192
0
4096
-4096
8192
0
4096
-4096
8192
0
4096
-4096
8192
0
4096
-4096
8192
0
4096
-4096
8192
0
4096
-4096
8192
0
4096
-4096
8192
0
4096
-4096
8192
0
4096
-4096
8192
0
4096
-4096
8192
0
4096
-4096
8192
0
4096
-4096
8192
0
4096
-4096
8192
0
4096
-4096
8192
0
4096
-4096
8192
0
4096
-4096
8192
0
4096
-4096
8192
0
4096
-4096
8192
0
4096
-4096
8192
0
4096
-4096
8192
0
4096
-4096
8192
0
4096
-4096
8192
0
4096
-4096
8192
0
4096
-4096
8192
0
4096
-4096
8192
0
4096
-4096
8192
0
4096
-4096
8192
0
4096
-4096
8192
0
4096
-4096
8192
0
4096
-4096
8192
0
4096
-4096
8192
0
4096
-4096
8192
0
4096
-4096
8192
0
4096
-4096
8192
0
4096
-4096
8192
0
4096
-4096
8192
0
4096
-4096
8192
0
4096
-4096
8192
0
4096
-4096
8192
0
4096
-4096
8192
0
4096
-4096
8192
0
4096
-4096
8192
0
4096
-4096
8192
0
4096
-4096
8192
0
4096
-4096
8192
0
4096
-4096
8192
0
4096
-4096
8192
0
4096
-4096
8192
0
4096
-4096
8192
0
4096
-4096
8192
0
4096
-4096
8192
0
4096
-4096
8192
0
4096
-4096
8192
0
4096
-4096
8192
0
4096
-4096
8192
0
4096
-4096
8192
0
4096
-4096
8192
0
4096
-4096
8192
0
4096
-4096
8192
0
4096
-4096
8192
0
4096
-4096
8192
0
4096
-4096
8192
0
4096
-4096
8192
0
4096
-4096
8192
0
4096
-4096
8192
0
4096
-4096
8192
0
4096
-4096
8192
0
4096
-4096
8192
0
4096
-4096
8192
0
4096
-4096
8192
0
4096
-4096
8192
0
4096
-4096
8192
0
4096
-4096
8192
0
4096
-4096
8192
0
4096
-4096
8192
0
4096
-4096
8192
0
4096
-4096
8192
0
4096
-4096
8192
0
4096
-4096
8192
0
4096
-4096
8192
0
4096
-4096
8192
0
4096
-4096
8192
0
4096
-4096
8192
0
4096
-4096
8192
0
4096
-4096
8192
0
4096
-4096
8192
0
4096
-4096
8192
0
4096
-4096
8192
0
4096
-4096
8192
0
4096
-4096
8192
0
4096
-4096
8192
0
4096
-4096
8192
0
4096
-4096
8192
0
4096
-4096
8192
0
4096
-4096
8192
0
4096
-4096
8192
0
4096
-4096
8192
0
4096
-4096
8192
0
4096
-4096
8192
0
4096
-4096
8192
0
4096
-4096
8192
0
4096
-4096
8192
0
4096
-4096
8192
0
4096
-4096
8192
0
4096
-4096
8192
0
4096
-4096
8192
0
4096
-4096
8192
0
4096
-4096
8192
0
4096
-4096
8192
0
4096
-4096
8192
0
4096
-4096
8192
0
4096
-4096
8192
0
4096
-4096
8192
0
4096
-4096
8192
0
4096
-4096
8192
0
4096
-4096
8192
0
4096
-4096
8192
0
4096
-4096
8192
0
4096
-4096
8192
0
4096
-4096
8192
0
4096
-4096
8192
0
4096
-4096
8192
0
4096
-4096
8192
0
4096
-4096
8192
0
4096
-4096
8192
0
4096
-4096
8192
0
4096
-4096
8192
0
4096
-4096
8192
0
4096
-4096
8192
0
4096
-4096
8192
0
4096
-4096
8192
0
4096
-4096
8192
0
4096
-4096
8192
0
4096
-4096
8192
0
4096
-4096
8192
0
4096
-4096
8192
0
4096
-4096
8192
0
4096
-4096
8192
0
4096
-4096
8192
0
4096
-4096
8192
0
4096
-4096
8192
0
4096
-4096
8192
0
4096
-4096
8192
0
4096
-4096
8192
0
4096
-4096
8192
0
4096
-4096
8192
0
4096
-4096
8192
0
4096
-4096
8192
0
4096
-4096
8192
0
4096
-4096
8192
0
4096
-4096
8192
0
4096
-4096
8192
0
4096
-4096
8192
0
4096
-4096
8192
0
4096
-4096
8192
0
4096
-4096
8192
0
4096
-4096
8192
0
4096
-4096
8192
0
4096
-4096
8192
0
4096
-4096
8192
0
4096
-4096
8192
0
4096
-4096
8192
0
4096
-4096
8192
0
4096
-4096
8192
0
4096
-4096
8192
0
4096
-4096
8192
0
4096
-4096
8192
0
4096
-4096
8192
0
4096
-4096
8192
0
4096
-4096
8192
0
4096
-4096
8192
0
4096
-4096
8192
0
4096
-4096
8192
0
4096
-4096
8192
0
4096
-4096
8192
0
4096
-4096
8192
0
4096
-4096
8192
0
4096
-4096
8192
0
4096
-4096
8192
0
4096
-4096
8192
0
4096
-4096
8192
0
4096
-4096
8192
0
4096
-4096
8192
0
4096
-4096
8192
0
4096
-4096
8192
0
4096
-4096
8192
0
4096
-4096
8192
0
4096
-4096
8192
0
4096
-4096
8192
0
4096
-4096
8192
0
4096
-4096
8192
0
4096
-4096
8192
0
4096
-4096
8192
0
4096
-4096
8192
0
4096
-4096
8192
0
4096
-4096
8192
0
4096
-4096
8192
0
4096
-4096
8192
0
4096
-4096
8192
0
4096
-4096
8192
0
4096
-4096
8192
0
4096
-4096
8192
0
4096
-4096
8192
0
4096
-4096
8192
0
4096
-4096
8192
0
4096
-4096
8192
0
4096
-4096
8192
0
4096
-4096
8192
0
4096
-4096
8192
0
4096
-4096
8192
0
4096
-4096
8192
0
4096
-4096
8192
0
4096
-4096
8192
0
4096
-4096
8192
0
4096
-4096
8192
0
4096
-4096
8192
0
4096
-4096
8192
0
4096
-4096
8192
0
4096
-4096
8192
0
4096
-4096
8192
0
4096
-4096
8192
0
4096
-4096
8192
0
4096
-4096
8192
0
4096
-4096
8192
0
4096
-4096
8192
0
4096
-4096
8192
0
4096
-4096
8192
0
4096
-4096
8192
0
4096
-4096
8192
0
4096
-4096
8192
0
4096
-4096
8192
0
4096
-4096
8192
0
4096
-4096
8192
0
4096
-4096
8192
0
4096
-4096
8192
0
4096
-4096
8192
0
4096
-4096
8192
0
4096
-4096
8192
0
4096
-4096
8192
0
4096
-4096
8192
0
4096
-4096
8192
0
4096
-4096
8192
0
4096
-4096
8192
0
4096
-4096
8192
0
4096
-4096
8192
0
4096
-4096
8192
0
4096
-4096
8192
0
4096
-4096
8192
0
4096
-4096
8192
0
4096
-4096
8192
0
4096
-4096
8192
0
4096
-4096
8192
0
4096
-4096
8192
0
4096
-4096
8192
0
4096
-4096
8192
0
4096
-4096
8192
0
4096
-4096
8192
0
4096
-4096
8192
0
4096
-4096
8192
0
4096
-4096
8192
0
4096
-4096
8192
0
4096
-4096
8192
0
4096
-4096
8192
0
4096
-4096
8192
0
4096
-4096
8192
0
4096
-4096
8192
0
4096
-4096
8192
0
4096
-4096
8192
0
4096
-4096
8192
0
4096
-4096
8192
0
4096
-4096
8192
0
4096
-4096
8192
0
4096
-4096
8192
0
4096
-4096
8192
0
4096
-4096
8192
0
4096
-4096
8192
0
4096
-4096
8192
0
4096
-4096
8192
0
4096
-4096
8192
0
4096
-4096
8192
0
4096
-4096
8192
0
4096
-4096
8192
0
4096
-4096
8192
0
4096
-4096
8192
0
4096
-4096
8192
0
4096
-4096
8192
0
4096
-4096
8192
0
4096
-4096
8192
0
4096
-4096
8192
0
4096
-4096
8192
0
4096
-4096
8192
0
4096
-4096
8192
0
4096
-4096
8192
0
4096
-4096
8192
0
4096
-4096
8192
0
4096
-4096
8192
0
4096
-4096
8192
0
4096
-4096
8192
0
4096
-4096
8192
0
4096
-4096
8192
0
4096
-4096
8192
0
4096
-4096
8192
0
4096
-4096
8192
0
4096
-4096
8192
0
4096
-4096
8192
0
4096
-4096
8192
0
4096
-4096
8192
0
4096
-4096
8192
0
4096
-4096
8192
0
4096
-4096
8192
0
4096
-4096
8192
0
4096
-4096
8192
0
4096
-4096
8192
0
4096
-4096
8192
0
4096
-4096
8192
0
4096
-4096
8192
0
4096
-4096
8192
0
4096
-4096
8192
0
4096
-4096
8192
0
4096
-4096
8192
0
4096
-4096
8192
0
4096
-4096
8192
0
4096
-4096
8192
0
4096
-4096
8192
0
4096
-4096
8192
0
4096
-4096
8192
0
4096
-4096
8192
0
4096
-4096
8192
0
4096
-4096
8192
0
4096
-4096
8192
0
4096
-4096
8192
0
4096
-4096
8192
0
4096
-4096
8192
0
4096
-4096
8192
0
4096
-4096
8192
0
4096
-4096
8192
0
4096
-4096
8192
0
4096
-4096
8192
0
4096
-4096
8192
0
4096
-4096
8192
0
4096
-4096
8192
0
4096
-4096
8192
0
4096
-4096
8192
0
4096
-4096
8192
0
4096
-4096
8192
0
4096
-4096
8192
0
4096
-4096
8192
0
4096
-4096
8192
0
4096
-4096
8192
0
4096
-4096
8192
0
4096
-4096
8192
0
4096
-4096
8192
0
4096
-4096
8192
0
4096
-4096
8192
0
4096
-4096
8192
0
4096
-4096
8192
0
4096
-4096
8192
0
4096
-4096
8192
0
4096
-4096
8192
0
4096
-4096
8192
0
4096
-4096
8192
0
4096
-4096
8192
0
4096
-4096
8192
0
4096
-4096
8192
0
4096
-4096
8192
0
4096
-4096
8192
0
4096
-4096
8192
0
4096
-4096
8192
0
4096
-4096
8192
0
4096
-4096
8192
0
4096
-4096
8192
0
4096
-4096
8192
0
4096
-4096
8192
0
4096
-4096
8192
0
4096
-4096
8192
0
4096
-4096
8192
0
4096
-4096
8192
0
4096
-4096
8192
0
4096
-4096
8192
0
4096
-4096
8192
0
4096
-4096
8192
0
4096
-4096
8192
0
4096
-4096
8192
0
4096
-4096
8192
0
4096
-4096
8192
0
4096
-4096
8192
0
4096
-4096
8192
0
4096
-4096
8192
0
4096
-4096
8192
0
4096
-4096
8192
0
4096
-4096
8192
0
4096
-4096
8192
0
4096
-4096
8192
0
4096
-4096
8192
0
4096
-4096
8192
0
4096
-4096
8192
0
4096
-4096
8192
0
4096
-4096
8192
0
4096
-4096
8192
0
4096
-4096
8192
0
4096
-4096
8192
0
4096
-4096
8192
0
4096
-4096
8192
0
4096
-4096
8192
0
4096
-4096
8192
0
4096
-4096
8192
0
4096
-4096
8192
0
4096
-4096
8192
0
4096
-4096
8192
0
4096
-4096
8192
0
4096
-4096
8192
0
4096
-4096
8192
0
4096
-4096
8192
0
4096
-4096
8192
0
4096
-4096
8192
0
4096
-4096
8192
0
4096
-4096
8192
0
4096
-4096
8192
0
4096
-4096
8192
0
4096
-4096
8192
0
4096
-4096
8192
0
4096
-4096
8192
0
4096
-4096
8192
0
4096
-4096
8192
0
4096
-4096
8192
0
4096
-4096
8192
0
4096
-4096
8192
0
4096
-4096
8192
0
4096
-4096
8192
0
4096
-4096
8192
0
4096
-4096
8192
0
4096
-4096
8192
0
4096
-4096
8192
0
4096
-4096
8192
0
4096
-4096
8192
0
4096
-4096
8192
0
4096
-4096
8192
0
4096
-4096
8192
0
4096
-4096
8192
0
4096
-4096
8192
0
4096
-4096
8192
0
4096
-4096
8192
0
4096
-4096
8192
0
4096
-4096
8192
0
4096
-4096
8192
0
4096
-4096
8192
0
4096
-4096
8192
0
4096
-4096
8192
0
4096
-4096
8192
0
4096
-4096
8192
0
4096
-4096
8192
0
4096
-4096
8192
0
4096
-4096
8192
0
4096
-4096
8192
0
4096
-4096
8192
0
4096
-4096
8192
0
4096
-4096
8192
0
4096
-4096
8192
0
4096
-4096
8192
0
4096
-4096
8192
0
4096
-4096
8192
0
4096
-4096
8192
0
4096
-4096
8192
0
4096
-4096
8192
0
4096
-4096
8192
0
4096
-4096
8192
0
4096
-4096
8192
0
4096
-4096
8192
0
4096
-4096
8192
0
4096
-4096
8192
0
4096
-4096
8192
0
4096
-4096
8192
0
4096
-4096
8192
0
4096
-4096
8192
0
4096
-4096
8192
0
4096
-4096
8192
0
4096
-4096
8192
0
4096
-4096
8192
0
4096
-4096
8192
0
4096
-4096
8192
0
4096
-4096
8192
0
4096
-4096
8192
0
4096
-4096
8192
0
4096
-4096
8192
0
4096
-4096
8192
0
4096
-4096
8192
0
4096
-4096
8192
0
4096
-4096
8192
0
4096
-4096
8192
0
4096
-4096
8192
0
4096
-4096
8192
0
4096
-4096
8192
0
4096
-4096
8192
0
4096
-4096
8192
0
4096
-4096
8192
0
4096
-4096
8192
0
4096
-4096
8192
0
4096
-4096
8192
0
4096
-4096
8192
0
4096
-4096
8192
0
4096
-4096
8192
0
4096
-4096
8192
0
4096
-4096
8192
0
4096
-4096
8192
0
4096
-4096
8192
0
4096
-4096
8192
0
4096
-4096
8192
0
4096
-4096
8192
0
4096
-4096
8192
0
4096
-4096
8192
0
4096
-4096
8192
0
4096
-4096
8192
0
4096
-4096
8192
0
4096
-4096
8192
0
4096
-4096
8192
0
4096
-4096
8192
0
4096
-4096
8192
0
4096
-4096
8192
0
4096
-4096
8192
0
4096
-4096
8192
0
4096
-4096
8192
0
4096
-4096
8192
0
4096
-4096
8192
0
4096
-4096
8192
0
4096
-4096
8192
0
4096
-4096
8192
0
4096
-4096
8192
0
4096
-4096
8192
0
4096
-4096
8192
0
4096
-4096
8192
0
4096
-4096
8192
0
4096
-4096
8192
0
4096
-4096
8192
0
4096
-4096
8192
0
4096
-4096
8192
0
4096
-4096
8192
0
4096
-4096
8192
0
4096
-4096
8192
0
4096
-4096
8192
0
4096
-4096
8192
0
4096
-4096
8192
0
4096
-4096
8192
0
4096
-4096
8192
0
4096
-4096
8192
0
4096
-4096
8192
0
4096
-4096
8192
0
4096
-4096
8192
0
4096
-4096
8192
0
4096
-4096
8192
0
4096
-4096
8192
0
4096
-4096
8192
0
4096
-4096
8192
0
4096
-4096
8192
0
4096
-4096
8192
0
4096
-4096
8192
0
4096
-4096
8192
0
4096
-4096
8192
0
4096
-4096
8192
0
4096
-4096
8192
0
4096
-4096
8192
0
4096
-4096
8192
0
4096
-4096
8192
0
4096
-4096
8192
0
4096
-4096
8192
0
4096
-4096
8192
0
4096
-4096
8192
0
4096
-4096
8192
0
4096
-4096
8192
0
4096
-4096
8192
0
4096
-4096
8192
0
4096
-4096
8192
0
4096
-4096
8192
0
4096
-4096
8192
0
4096
-4096
8192
0
4096
-4096
8192
0
4096
-4096
8192
0
4096
-4096
8192
0
4096
-4096
8192
0
4096
-4096
8192
0
4096
-4096
8192
0
4096
-4096
8192
0
4096
-4096
8192
0
4096
-4096
8192
0
4096
-4096
8192
0
4096
-4096
8192
0
4096
-4096
8192
0
4096
-4096
8192
0
4096
-4096
8192
0
4096
-4096
8192
0
4096
-4096
8192
0
4096
-4096
8192
0
4096
-4096
8192
0
4096
-4096
8192
0
4096
-4096
8192
0
4096
-4096
8192
0
4096
-4096
8192
0
4096
-4096
8192
0
4096
-4096
8192
0
4096
-4096
8192
0
4096
-4096
8192
0
4096
-4096
8192
0
4096
-4096
8192
0
4096
-4096
8192
0
4096
-4096
8192
0
4096
-4096
8192
0
4096
-4096
8192
0
4096
-4096
8192
0
4096
-4096
8192
0
4096
-4096
8192
0
4096
-4096
8192
0
4096
-4096
8192
0
4096
-4096
8192
0
4096
-4096
8192
0
4096
-4096
8192
0
4096
-4096
8192
0
4096
-4096
8192
0
4096
-4096
8192
0
4096
-4096
8192
0
4096
-4096
8192
0
4096
-4096
8192
0
4096
-4096
8192
0
4096
-4096
8192
0
4096
-4096
8192
0
4096
-4096
8192
0
4096
-4096
8192
0
4096
-4096
8192
0
4096
-4096
8192
0
4096
-4096
8192
0
4096
-4096
8192
0
4096
-4096
8192
0
4096
-4096
8192
0
4096
-4096
8192
0
4096
-4096
8192
0
4096
-4096
8192
0
4096
-4096
8192
0
4096
-4096
8192
0
4096
-4096
8192
0
4096
-4096
8192
0
4096
-4096
8192
0
4096
-4096
8192
0
4096
-4096
8192
0
4096
-4096
8192
0
4096
-4096
8192
0
4096
-4096
8192
0
4096
-4096
8192
0
4096
-4096
8192
0
4096
-4096
8192
0
4096
-4096
8192
0
4096
-4096
8192
0
4096
-4096
8192
0
4096
-4096
8192
0
4096
-4096
8192
0
4096
-4096
8192
0
4096
-4096
8192
0
4096
-4096
8192
0
4096
-4096
8192
0
4096
-4096
8192
0
4096
-4096
8192
0
4096
-4096
8192
0
4096
-4096
8192
0
4096
-4096
8192
0
4096
-4096
8192
0
4096
-4096
8192
0
4096
-4096
8192
0
4096
-4096
8192
0
4096
-4096
8192
0
4096
-4096
8192
0
4096
-4096
8192
0
4096
-4096
8192
0
4096
-4096
8192
0
4096
-4096
8192
0
4096
-4096
8192
0
4096
-4096
8192
0
4096
-4096
8192
0
4096
-4096
8192
0
4096
-4096
8192
0
4096
-4096
8192
0
4096
-4096
8192
0
4096
-4096
8192
0
4096
-4096
8192
0
4096
-4096
8192
0
4096
-4096
8192
0
4096
-4096
8192
0
4096
-4096
8192
0
4096
-4096
8192
0
4096
-4096
8192
0
4096
-4096
8192
0
4096
-4096
8192
0
4096
-4096
8192
0
4096
-4096
8192
0
4096
-4096
8192
0
4096
-4096
8192
0
4096
-4096
8192
0
4096
-4096
8192
0
4096
-4096
8192
0
4096
-4096
8192
0
4096
-4096
8192
0
4096
-4096
8192
0
4096
-4096
8192
0
4096
-4096
8192
0
4096
-4096
8192
0
4096
-4096
8192
0
4096
-4096
8192
0
4096
-4096
8192
0
4096
-4096
8192
0
4096
-4096
8192
0
4096
-4096
8192
0
4096
-4096
8192
0
4096
-4096
8192
0
4096
-4096
8192
0
4096
-4096
8192
0
4096
-4096
8192
0
4096
-4096
8192
0
4096
-4096
8192
0
4096
-4096
8192
0
4096
-4096
8192
0
4096
-4096
8192
0
4096
-4096
8192
0
4096
-4096
8192
0
4096
-4096
8192
0
4096
-4096
8192
0
4096
-4096
8192
0
4096
-4096
8192
0
4096
-4096
8192
0
4096
-4096
8192
0
4096
-4096
8192
0
4096
-4096
8192
0
4096
-4096
8192
0
4096
-4096
8192
0
4096
-4096
8192
0
4096
-4096
8192
0
4096
-4096
8192
0
4096
-4096
8192
0
4096
-4096
8192
0
4096
-4096
8192
0
4096
-4096
8192
0
4096
-4096
8192
0
4096
-4096
8192
0
4096
-4096
8192
0
4096
-4096
8192
0
4096
-4096
8192
0
4096
-4096
8192
0
4096
-4096
8192
0
4096
-4096
8192
0
4096
-4096
8192
0
4096
-4096
8192
0
4096
-4096
8192
0
4096
-4096
8192
0
4096
-4096
8192
0
4096
-4096
8192
0
4096
-4096
8192
0
4096
-4096
8192
0
4096
-4096
8192
0
4096
-4096
8192
0
4096
-4096
8192
0
4096
-4096
8192
0
4096
-4096
8192
0
4096
-4096
8192
0
4096
-4096
8192
0
4096
-4096
8192
0
4096
-4096
8192
0
4096
-4096
8192
0
4096
-4096
8192
0
4096
-4096
8192
0
4096
-4096
8192
0
4096
-4096
8192
0
4096
-4096
8192
0
4096
-4096
8192
0
4096
-4096
8192
0
4096
-4096
8192
0
4096
-4096
8192
0
4096
-4096
8192
0
4096
-4096
8192
0
4096
-4096
8192
0
4096
-4096
8192
0
4096
-4096
8192
0
4096
-4096
8192
0
4096
-4096
8192
0
4096
-4096
8192
0
4096
-4096
8192
0
4096
-4096
8192
0
4096
-4096
8192
0
4096
-4096
8192
0
4096
-4096
8192
0
4096
-4096
8192
0
4096
-4096
8192
0
4096
-4096
8192
0
4096
-4096
8192
0
4096
-4096
8192
0
4096
-4096
8192
0
4096
-4096
8192
0
4096
-4096
8192
0
4096
-4096
8192
0
4096
-4096
8192
0
4096
-4096
8192
0
4096
-4096
8192
0
4096
-4096
8192
0
4096
-4096
8192
0
4096
-4096
8192
0
4096
-4096
8192
0
4096
-4096
8192
0
4096
-4096
8192
0
4096
-4096
8192
0
4096
-4096
8192
0
4096
-4096
8192
0
4096
-4096
8192
0
4096
-4096
8192
0
4096
-4096
8192
0
4096
-4096
8192
0
4096
-4096
8192
0
4096
-4096
8192
0
4096
-4096
8192
0
4096
-4096
8192
0
4096
-4096
8192
0
4096
-4096
8192
0
4096
-4096
8192
0
4096
-4096
8192
0
4096
-4096
8192
0
4096
-4096
8192
0
4096
-4096
8192
0
4096
-4096
8192
0
4096
-4096
8192
0
4096
-4096
8192
0
4096
-4096
8192
0
4096
-4096
8192
0
4096
-4096
8192
0
4096
-4096
8192
0
4096
-4096
8192
0
4096
-4096
8192
0
4096
-4096
8192
0
4096
-4096
8192
0
4096
-4096
8192
0
4096
-4096
8192
0
4096
-4096
8192
0
4096
-4096
8192
0
4096
-4096
8192
0
4096
-4096
8192
0
4096
-4096
8192
0
4096
-4096
8192
0
4096
-4096
8192
0
4096
-4096
8192
0
4096
-4096
8192
0
4096
-4096
8192
0
4096
-4096
8192
0
4096
-4096
8192
0
4096
-4096
8192
0
4096
-4096
8192
0
4096
-4096
8192
0
4096
-4096
8192
0
4096
-4096
8192
0
4096
-4096
8192
0
4096
-4096
8192
0
4096
-4096
8192
0
4096
-4096
8192
0
4096
-4096
8192
0
4096
-4096
8192
0
4096
-4096
8192
0
4096
-4096
8192
0
4096
-4096
8192
0
4096
-4096
8192
0
4096
-4096
8192
0
4096
-4096
8192
0
4096
-4096
8192
0
4096
-4096
8192
0
4096
-4096
8192
0
4096
-4096
8192
0
4096
-4096
8192
0
4096
-4096
8192
0
4096
-4096
8192
0
4096
-4096
8192
0
4096
-4096
8192
0
4096
-4096
8192
0
4096
-4096
8192
0
4096
-4096
8192
0
4096
-4096
8192
0
4096
-4096
8192
0
4096
-4096
8192
0
4096
-4096
8192
0
4096
-4096
8192
0
4096
-4096
8192
0
4096
-4096
8192
0
4096
-4096
8192
0
4096
-4096
8192
0
4096
-4096
8192
0
4096
-4096
8192
0
4096
-4096
8192
0
4096
-4096
8192
0
4096
-4096
8192
0
4096
-4096
8192
0
4096
-4096
8192
0
4096
-4096
8192
0
4096
-4096
8192
0
4096
-4096
8192
0
4096
-4096
8192
0
4096
-4096
8192
0
4096
-4096
8192
0
4096
-4096
8192
0
4096
-4096
8192
0
4096
-4096
8192
0
4096
-4096
8192
0
4096
-4096
8192
0
4096
-4096
8192
0
4096
-4096
8192
0
4096
-4096
8192
0
4096
-4096
8192
0
4096
-4096
8192
0
4096
-4096
8192
0
4096
-4096
8192
0
4096
-4096
8192
0
4096
-4096
8192
0
4096
-4096
8192
0
4096
-4096
8192
0
4096
-4096
8192
0
4096
-4096
8192
0
4096
-4096
8192
0
4096
-4096
8192
0
4096
-4096
8192
0
4096
-4096
8192
0
4096
-4096
8192
0
4096
-4096
8192
0
4096
-4096
8192
0
4096
-4096
8192
0
4096
-4096
8192
0
4096
-4096
8192
0
4096
-4096
8192
0
4096
-4096
8192
0
4096
-4096
8192
0
4096
-4096
8192
0
4096
-4096
8192
0
4096
-4096
8192
0
4096
-4096
8192
0
4096
-4096
8192
0
4096
-4096
8192
0
4096
-4096
8192
0
4096
-4096
8192
0
4096
-4096
8192
0
4096
-4096
8192
0
4096
-4096
8192
0
4096
-4096
8192
0
4096
-4096
8192
0
4096
-4096
8192
0
4096
-4096
8192
0
4096
-4096
8192
0
4096
-4096
8192
0
4096
-4096
8192
0
4096
-4096
8192
0
4096
-4096
8192
0
4096
-4096
8192
0
4096
-4096
8192
0
4096
-4096
8192
0
4096
-4096
8192
0
4096
-4096
8192
0
4096
-4096
8192
0
4096
-4096
8192
0
4096
-4096
8192
0
4096
-4096
8192
0
4096
-4096
8192
0
4096
-4096
8192
0
4096
-4096
8192
0
4096
-4096
8192
0
4096
-4096
8192
0
4096
-4096
8192
0
4096
-4096
8192
0
4096
-4096
8192
0
4096
-4096
8192
0
4096
-4096
8192
0
4096
-4096
8192
0
4096
-4096
8192
0
4096
-4096
8192
0
4096
-4096
8192
0
4096
-4096
8192
0
4096
-4096
8192
0
4096
-4096
8192
0
4096
-4096
8192
0
4096
-4096
8192
0
4096
-4096
8192
0
4096
-4096
8192
0
4096
-4096
8192
0
4096
-4096
8192
0
4096
-4096
8192
0
4096
-4096
8192
0
4096
-4096
8192
0
4096
-4096
8192
0
4096
-4096
8192
0
4096
-4096
8192
0
4096
-4096
8192
0
4096
-4096
8192
0
4096
-4096
8192
0
4096
-4096
8192
0
4096
-4096
8192
0
4096
-4096
8192
0
4096
-4096
8192
0
4096
-4096
8192
0
4096
-4096
8192
0
4096
-4096
8192
0
4096
-4096
8192
0
4096
-4096
8192
0
4096
-4096
8192
0
4096
-4096
8192
0
4096
-4096
8192
0
4096
-4096
8192
0
4096
-4096
8192
0
4096
-4096
8192
0
4096
-4096
8192
0
4096
-4096
8192
0
4096
-4096
8192
0
4096
-4096
8192
0
4096
-4096
8192
0
4096
-4096
8192
0
4096
-4096
8192
0
4096
-4096
8192
0
4096
-4096
8192
0
4096
-4096
8192
0
4096
-4096
8192
0
4096
-4096
8192
0
4096
-4096
8192
0
4096
-4096
8192
0
4096
-4096
8192
0
4096
-4096
8192
0
4096
-4096
8192
0
4096
-4096
8192
0
4096
-4096
8192
0
4096
-4096
8192
0
4096
-4096
8192
0
4096
-4096
8192
0
4096
-4096
8192
0
4096
-4096
8192
0
4096
-4096
8192
0
4096
-4096
8192
0
4096
-4096
8192
0
4096
-4096
8192
0
4096
-4096
8192
0
4096
-4096
8192
0
4096
-4096
8192
0
4096
-4096
8192
0
4096
-4096
8192
0
4096
-4096
8192
0
4096
-4096
8192
0
4096
-4096
8192
0
4096
-4096
8192
0
4096
-4096
8192
0
4096
-4096
8192
0
4096
-4096
8192
0
4096
-4096
8192
0
4096
-4096
8192
0
4096
-4096
8192
0
4096
-4096
8192
0
4096
-4096
8192
0
4096
-4096
8192
0
4096
-4096
8192
0
4096
-4096
8192
0
4096
-4096
8192
0
4096
-4096
8192
0
4096
-4096
8192
0
4096
-4096
8192
0
4096
-4096
8192
0
4096
-4096
8192
0
4096
-4096
8192
0
4096
-4096
8192
0
4096
-4096
8192
0
4096
-4096
8192
0
4096
-4096
8192
0
4096
-4096
8192
0
4096
-4096
8192
0
4096
-4096
8192
0
4096
-4096
8192
0
4096
-4096
8192
0
4096
-4096
8192
0
4096
-4096
8192
0
4096
-4096
8192
0
4096
-4096
8192
0
4096
-4096
8192
0
4096
-4096
8192
0
4096
-4096
8192
0
4096
-4096
8192
0
4096
-4096
8192
0
4096
-4096
8192
0
4096
-4096
8192
0
4096
-4096
8192
0
4096
-4096
8192
0
4096
-4096
8192
0
4096
-4096
8192
0
4096
-4096
8192
0
4096
-4096
8192
0
4096
-4096
8192
0
4096
-4096
8192
0
4096
-4096
8192
0
4096
-4096
8192
0
4096
-4096
8192
0
4096
-4096
8192
0
4096
-4096
8192
0
4096
-4096
8192
0
4096
-4096
8192
0
4096
-4096
8192
0
4096
-4096
8192
0
4096
-4096
8192
0
4096
-4096
8192
0
4096
-4096
8192
0
4096
-4096
8192
0
4096
-4096
8192
0
4096
-4096
8192
0
4096
-4096
8192
0
4096
-4096
8192
0
4096
-4096
8192
0
4096
-4096
8192
0
4096
-4096
8192
0
4096
-4096
8192
0
4096
-4096
8192
0
4096
-4096
8192
0
4096
-4096
8192
0
4096
-4096
8192
0
4096
-4096
8192
0
4096
-4096
8192
0
4096
-4096
8192
0
4096
-4096
8192
0
4096
-4096
8192
0
4096
-4096
8192
0
4096
-4096
8192
0
4096
-4096
8192
0
4096
-4096
8192
0
4096
-4096
8192
0
4096
-4096
8192
0
4096
-4096
8192
0
4096
-4096
8192
0
4096
-4096
8192
0
4096
-4096
8192
0
4096
-4096
8192
0
4096
-4096
8192
0
4096
-4096
8192
0
4096
-4096
8192
0
4096
-4096
8192
0
4096
-4096
8192
0
4096
-4096
8192
0
4096
-4096
8192
0
4096
-4096
8192
0
4096
-4096
8192
0
4096
-4096
8192
0
4096
-4096
8192
0
4096
-4096
8192
0
4096
-4096
8192
0
4096
-4096
8192
0
4096
-4096
8192
0
4096
-4096
8192
0
4096
-4096
8192
0
4096
-4096
8192
0
4096
-4096
8192
0
4096
-4096
8192
0
4096
-4096
8192
0
4096
-4096
8192
0
4096
-4096
8192
0
4096
-4096
8192
0
4096
-4096
8192
0
4096
-4096
8192
0
4096
-4096
8192
0
4096
-4096
8192
0
4096
-4096
8192
0
4096
-4096
8192
0
4096
-4096
8192
0
4096
-4096
8192
0
4096
-4096
8192
0
4096
-4096
8192
0
4096
-4096
8192
0
4096
-4096
8192
0
4096
-4096
8192
0
4096
-4096
8192
0
4096
-4096
8192
0
4096
-4096
8192
0
4096
-4096
8192
0
4096
-4096
8192
0
4096
-4096
8192
0
4096
-4096
8192
0
4096
-4096
8192
0
4096
-4096
8192
0
4096
-4096
8192
0
4096
-4096
8192
0
4096
-4096
8192
0
4096
-4096
8192
0
4096
-4096
8192
0
4096
-4096
8192
0
4096
-4096
8192
0
4096
-4096
8192
0
4096
-4096
8192
0
4096
-4096
8192
0
4096
-4096
8192
0
4096
-4096
8192
0
4096
-4096
8192
0
4096
-4096
8192
0
4096
-4096
8192
0
4096
-4096
8192
0
4096
-4096
8192
0
4096
-4096
8192
0
4096
-4096
8192
0
4096
-4096
8192
0
4096
-4096
8192
0
4096
-4096
8192
0
4096
-4096
8192
0
4096
-4096
8192
0
4096
-4096
8192
0
4096
-4096
8192
0
4096
-4096
8192
0
4096
-4096
8192
0
4096
-4096
8192
0
4096
-4096
8192
0
4096
-4096
8192
0
4096
-4096
8192
0
4096
-4096
8192
0
4096
-4096
8192
0
4096
-4096
8192
0
4096
-4096
8192
0
4096
-4096
8192
0
4096
-4096
8192
0
4096
-4096
8192
0
4096
-4096
8192
0
4096
-4096
8192
0
4096
-4096
8192
0
4096
-4096
8192
0
4096
-4096
8192
0
4096
-4096
8192
0
4096
-4096
8192
0
4096
-4096
8192
0
4096
-4096
8192
0
4096
-4096
8192
0
4096
-4096
8192
0
4096
-4096
8192
0
4096
-4096
8192
0
4096
-4096
8192
0
4096
-4096
8192
0
4096
-4096
8192
0
4096
-4096
8192
0
4096
-4096
8192
0
4096
-4096
8192
0
4096
-4096
8192
0
4096
-4096
8192
0
4096
-4096
8192
0
4096
-4096
8192
0
4096
-4096
8192
0
4096
-4096
8192
0
4096
-4096
8192
0
4096
-4096
8192
0
4096
-4096
8192
0
4096
-4096
8192
0
4096
-4096
8192
0
4096
-4096
8192
0
4096
-4096
8192
0
4096
-4096
8192
0
4096
-4096
8192
0
4096
-4096
8192
0
4096
-4096
8192
0
4096
-4096
8192
0
4096
-4096
8192
0
4096
-4096
8192
0
4096
-4096
8192
0
4096
-4096
8192
0
4096
-4096
8192
0
4096
-4096
8192
0
4096
-4096
8192
0
4096
-4096
8192
0
4096
-4096
8192
0
4096
-4096
8192
0
4096
-4096
8192
0
4096
-4096
8192
0
4096
-4096
8192
0
4096
-4096
8192
0
4096
-4096
8192
0
4096
-4096
8192
0
4096
-4096
8192
0
4096
-4096
8192
0
4096
-4096
8192
0
4096
-4096
8192
0
4096
-4096
8192
0
4096
-4096
8192
0
4096
-4096
8192
0
4096
-4096
8192
0
4096
-4096
8192
0
4096
-4096
8192
0
4096
-4096
8192
0
4096
-4096
8192
0
4096
-4096
8192
0
4096
-4096
8192
0
4096
-4096
8192
0
4096
-4096
8192
0
4096
-4096
8192
0
4096
-4096
8192
0
4096
-4096
8192
0
4096
-4096
8192
0
4096
-4096
8192
0
4096
-4096
8192
0
4096
-4096
8192
0
4096
-4096
8192
0
4096
-4096
8192
0
4096
-4096
8192
0
4096
-4096
8192
0
4096
-4096
8192
0
4096
-4096
8192
0
4096
-4096
8192
0
4096
-4096
8192
0
4096
-4096
8192
0
4096
-4096
8192
0
4096
-4096
8192
0
4096
-4096
8192
0
4096
-4096
8192
0
4096
-4096
8192
0
4096
-4096
8192
0
4096
-4096
8192
0
4096
-4096
8192
0
4096
-4096
8192
0
4096
-4096
8192
0
4096
-4096
8192
0
4096
-4096
8192
0
4096
-4096
8192
0
4096
-4096
8192
0
4096
-4096
8192
0
4096
-4096
8192
0
4096
-4096
8192
0
4096
-4096
8192
0
4096
-4096
8192
0
4096
-4096
8192
0
4096
-4096
8192
0
4096
-4096
8192
0
4096
-4096
8192
0
4096
-4096
8192
0
4096
-4096
8192
0
4096
-4096
8192
0
4096
-4096
8192
0
4096
-4096
8192
0
4096
-4096
8192
0
4096
-4096
8192
0
4096
-4096
8192
0
4096
-4096
8192
0
4096
-4096
8192
0
4096
-4096
8192
0
4096
-4096
8192
0
4096
-4096
8192
0
4096
-4096
8192
0
4096
-4096
8192
0
4096
-4096
8192
0
4096
-4096
8192
0
4096
-4096
8192
0
4096
-4096
8192
0
4096
-4096
8192
0
4096
-4096
8192
0
4096
-4096
8192
0
4096
-4096
8192
0
4096
-4096
8192
0
4096
-4096
8192
0
4096
-4096
8192
0
4096
-4096
8192
0
4096
-4096
8192
0
4096
-4096
8192
0
4096
-4096
8192
0
4096
-4096
8192
0
4096
-4096
8192
0
4096
-4096
8192
0
4096
-4096
8192
0
4096
-4096
8192
0
4096
-4096
8192
0
4096
-4096
8192
0
4096
-4096
8192
0
4096
-4096
8192
0
4096
-4096
8192
0
4096
-4096
8192
0
4096
-4096
8192
0
4096
-4096
8192
0
4096
-4096
8192
0
4096
-4096
8192
0
4096
-4096
8192
0
4096
-4096
8192
0
4096
-4096
8192
0
4096
-4096
8192
0
4096
-4096
8192
0
4096
-4096
8192
0
4096
-4096
8192
0
4096
-4096
8192
0
4096
-4096
8192
0
4096
-4096
8192
0
4096
-4096
8192
0
4096
-4096
8192
0
4096
-4096
8192
0
4096
-4096
8192
0
4096
-4096
8192
0
4096
-4096
8192
0
4096
-4096
8192
0
4096
-4096
8192
0
4096
-4096
8192
0
4096
-4096
8192
0
4096
-4096
8192
0
4096
-4096
8192
0
4096
-4096
8192
0
4096
-4096
8192
0
4096
-4096
8192
0
4096
-4096
8192
0
4096
-4096
8192
0
4096
-4096
8192
0
4096
-4096
8192
0
4096
-4096
8192
0
4096
-4096
8192
0
4096
-4096
8192
0
4096
-4096
8192
0
4096
-4096
8192
0
4096
-4096
8192
0
4096
-4096
8192
0
4096
-4096
8192
0
4096
-4096
8192
0
4096
-4096
8192
0
4096
-4096
8192
0
4096
-4096
8192
0
4096
-4096
8192
0
4096
-4096
8192
0
4096
-4096
8192
0
4096
-4096
8192
0
4096
-4096
8192
0
4096
-4096
8192
0
4096
-4096
8192
0
4096
-4096
8192
0
4096
-4096
8192
0
4096
-4096
8192
0
4096
-4096
8192
0
4096
-4096
8192
0
4096
-4096
8192
0
4096
-4096
8192
0
4096
-4096
8192
0
4096
-4096
8192
0
4096
-4096
8192
0
4096
-4096
8192
0
4096
-4096
8192
0
4096
-4096
8192
0
4096
-4096
8192
0
4096
-4096
8192
0
4096
-4096
8192
0
4096
-4096
8192
0
4096
-4096
8192
0
4096
-4096
8192
0
4096
-4096
8192
0
4096
-4096
8192
0
4096
-4096
8192
0
4096
-4096
8192
0
4096
-4096
8192
0
4096
-4096
8192
0
4096
-4096
8192
0
4096
-4096
8192
0
4096
-4096
8192
0
4096
-4096
8192
0
4096
-4096
8192
0
4096
-4096
8192
0
4096
-4096
8192
0
4096
-4096
8192
0
4096
-4096
8192
0
4096
-4096
8192
0
4096
-4096
8192
0
4096
-4096
8192
0
4096
-4096
8192
0
4096
-4096
8192
0
4096
-4096
8192
0
4096
-4096
8192
0
4096
-4096
8192
0
4096
-4096
8192
0
4096
-4096
8192
0
4096
-4096
8192
0
4096
-4096
8192
0
4096
-4096
8192
0
4096
-4096
8192
0
4096
-4096
8192
0
4096
-4096
8192
0
4096
-4096
8192
0
4096
-4096
8192
0
4096
-4096
8192
0
4096
-4096
8192
0
4096
-4096
8192
0
4096
-4096
8192
0
4096
-4096
8192
0
4096
-4096
8192
0
4096
-4096
8192
0
4096
-4096
8192
0
4096
-4096
8192
0
4096
-4096
8192
0
4096
-4096
8192
0
4096
-4096
8192
0
4096
-4096
8192
0
4096
-4096
8192
0
4096
-4096
8192
0
4096
-4096
8192
0
4096
-4096
8192
0
4096
-4096
8192
0
4096
-4096
8192
0
4096
-4096
8192
0
4096
-4096
8192
0
4096
-4096
8192
0
4096
-4096
8192
0
4096
-4096
8192
0
4096
-4096
8192
0
4096
-4096
8192
0
4096
-4096
8192
0
4096
-4096
8192
0
4096
-4096
8192
0
4096
-4096
8192
0
4096
-4096
8192
0
4096
-4096
8192
0
4096
-4096
8192
0
4096
-4096
8192
0
4096
-4096
8192
0
4096
-4096
8192
0
4096
-4096
8192
0
4096
-4096
8192
0
4096
-4096
8192
0
4096
-4096
8192
0
4096
-4096
8192
0
4096
-4096
8192
0
4096
-4096
8192
0
4096
-4096
8192
0
4096
-4096
8192
0
4096
-4096
8192
0
4096
-4096
8192
0
4096
-4096
8192
0
4096
-4096
8192
0
4096
-4096
8192
0
4096
-4096
8192
0
4096
-4096
8192
0
4096
-4096
8192
0
4096
-4096
8192
0
4096
-4096
8192
0
4096
-4096
8192
0
4096
-4096
8192
0
4096
-4096
8192
0
4096
-4096
8192
0
4096
-4096
8192
0
4096
-4096
8192
0
4096
-4096
8192
0
4096
-4096
8192
0
4096
-4096
8192
0
4096
-4096
8192
0
4096
-4096
8192
0
4096
-4096
8192
0
4096
-4096
8192
0
4096
-4096
8192
0
4096
-4096
8192
0
4096
-4096
8192
0
4096
-4096
8192
0
4096
-4096
8192
0
4096
-4096
8192
0
4096
-4096
8192
0
4096
-4096
8192
0
4096
-4096
8192
0
4096
-4096
8192
0
4096
-4096
8192
0
4096
-4096
8192
0
4096
-4096
8192
0
4096
-4096
8192
0
4096
-4096
8192
0
4096
-4096
8192
0
4096
-4096
8192
0
4096
-4096
8192
0
4096
-4096
8192
0
4096
-4096
8192
0
4096
-4096
8192
0
4096
-4096
8192
0
4096
-4096
8192
0
4096
-4096
8192
0
4096
-4096
8192
0
4096
-4096
8192
0
4096
-4096
8192
0
4096
-4096
8192
0
4096
-4096
8192
0
4096
-4096
8192
0
4096
-4096
8192
0
4096
-4096
8192
0
4096
-4096
8192
0
4096
-4096
8192
0
4096
-4096
8192
0
4096
-4096
8192
0
4096
-4096
8192
0
4096
-4096
8192
0
4096
-4096
8192
0
4096
-4096
8192
0
4096
-4096
8192
0
4096
-4096
8192
0
4096
-4096
8192
0
4096
-4096
8192
0
4096
-4096
8192
0
4096
-4096
8192
0
4096
-4096
8192
0
4096
-4096
8192
0
4096
-4096
8192
0
4096
-4096
8192
0
4096
-4096
8192
0
4096
-4096
8192
0
4096
-4096
8192
0
4096
-4096
8192
0
4096
-4096
8192
0
4096
-4096
8192
0
4096
-4096
8192
0
4096
-4096
8192
0
4096
-4096
8192
0
4096
-4096
8192
0
4096
-4096
8192
0
4096
-4096
8192
0
4096
-4096
8192
0
4096
-4096
8192
0
4096
-4096
8192
0
4096
-4096
8192
0
4096
-4096
8192
0
4096
-4096
8192
0
4096
-4096
8192
0
4096
-4096
8192
0
4096
-4096
8192
0
4096
-4096
8192
0
4096
-4096
8192
0
4096
-4096
8192
0
4096
-4096
8192
0
4096
-4096
8192
0
4096
-4096
8192
0
4096
-4096
8192
0
4096
-4096
8192
0
4096
-4096
8192
0
4096
-4096
8192
0
4096
-4096
8192
0
4096
-4096
8192
0
4096
-4096
8192
0
4096
-4096
8192
0
4096
-4096
8192
0
4096
-4096
8192
0
4096
-4096
8192
0
4096
-4096
8192
0
4096
-4096
8192
0
4096
-4096
8192
0
4096
-4096
8192
0
4096
-4096
8192
0
4096
-4096
8192
0
4096
-4096
8192
0
4096
-4096
8192
0
4096
-4096
8192
0
4096
-4096
8192
0
4096
-4096
8192
0
4096
-4096
8192
0
4096
-4096
8192
0
4096
-4096
8192
0
4096
-4096
8192
0
4096
-4096
8192
0
4096
-4096
8192
0
4096
-4096
8192
0
4096
-4096
8192
0
4096
-4096
8192
0
4096
-4096
8192
0
4096
-4096
8192
0
4096
-4096
8192
0
4096
-4096
8192
0
4096
-4096
8192
0
4096
-4096
8192
0
4096
-4096
8192
0
4096
-4096
8192
0
4096
-4096
8192
0
4096
-4096
8192
0
4096
-4096
8192
0
4096
-4096
8192
0
4096
-4096
8192
0
4096
-4096
8192
0
4096
-4096
8192
0
4096
-4096
8192
0
4096
-4096
8192
0
4096
-4096
8192
0
4096
-4096
8192
0
4096
-4096
8192
0
4096
-4096
8192
0
4096
-4096
8192
0
4096
-4096
8192
0
4096
-4096
8192
0
4096
-4096
8192
0
4096
-4096
8192
0
4096
-4096
8192
0
4096
-4096
8192
0
4096
-4096
8192
0
4096
-4096
8192
0
4096
-4096
8192
0
4096
-4096
8192
0
4096
-4096
8192
0
4096
-4096
8192
0
4096
-4096
8192
0
4096
-4096
8192
0
4096
-4096
8192
0
4096
-4096
8192
0
4096
-4096
8192
0
4096
-4096
8192
0
4096
-4096
8192
0
4096
-4096
8192
0
4096
-4096
8192
0
4096
-4096
8192
0
4096
-4096
8192
0
4096
-4096
8192
0
4096
-4096
8192
0
4096
-4096
8192
0
4096
-4096
8192
0
4096
-4096
8192
0
4096
-4096
8192
0
4096
-4096
8192
0
4096
-4096
8192
0
4096
-4096
8192
0
4096
-4096
8192
0
4096
-4096
8192
0
4096
-4096
8192
0
4096
-4096
8192
0
4096
-4096
8192
0
4096
-4096
8192
0
4096
-4096
8192
0
4096
-4096
8192
0
4096
-4096
8192
0
4096
-4096
8192
0
4096
-4096
8192
0
4096
-4096
8192
0
4096
-4096
8192
0
4096
-4096
8192
0
4096
-4096
8192
0
4096
-4096
8192
0
4096
-4096
8192
0
4096
-4096
8192
0
4096
-4096
8192
0
4096
-4096
8192
0
4096
-4096
8192
0
4096
-4096
8192
0
4096
-4096
8192
0
4096
-4096
8192
0
4096
-4096
8192
0
4096
-4096
8192
0
4096
-4096
8192
0
4096
-4096
8192
0
4096
-4096
8192
0
4096
-4096
8192
0
4096
-4096
8192
0
4096
-4096
8192
0
4096
-4096
8192
0
4096
-4096
8192
0
4096
-4096
8192
0
4096
-4096
8192
0
4096
-4096
8192
0
4096
-4096
8192
0
4096
-4096
8192
0
4096
-4096
8192
0
4096
-4096
8192
0
4096
-4096
8192
0
4096
-4096
8192
0
4096
-4096
8192
0
4096
-4096
8192
0
4096
-4096
8192
0
4096
-4096
8192
0
4096
-4096
8192
0
4096
-4096
8192
0
4096
-4096
8192
0
4096
-4096
8192
0
4096
-4096
8192
0
4096
-4096
8192
0
4096
-4096
8192
0
4096
-4096
8192
0
4096
-4096
8192
0
4096
-4096
8192
0
4096
-4096
8192
0
4096
-4096
8192
0
4096
-4096
8192
0
4096
-4096
8192
0
4096
-4096
8192
0
4096
-4096
8192
0
4096
-4096
8192
0
4096
-4096
8192
0
4096
-4096
8192
0
4096
-4096
8192
0
4096
-4096
8192
0
4096
-4096
8192
0
4096
-4096
8192
0
4096
-4096
8192
0
4096
-4096
8192
0
4096
-4096
8192
0
4096
-4096
8192
0
4096
-4096
8192
0
4096
-4096
8192
0
4096
-4096
8192
0
4096
-4096
8192
0
4096
-4096
8192
0
4096
-4096
8192
0
4096
-4096
8192
0
4096
-4096
8192
0
4096
-4096
8192
0
4096
-4096
8192
0
4096
-4096
8192
0
4096
-4096
8192
0
4096
-4096
8192
0
4096
-4096
8192
0
4096
-4096
8192
0
4096
-4096
8192
0
4096
-4096
8192
0
4096
-4096
8192
0
4096
-4096
8192
0
4096
-4096
8192
0
4096
-4096
8192
0
4096
-4096
8192
0
4096
-4096
8192
0
4096
-4096
8192
0
4096
-4096
8192
0
4096
-4096
8192
0
4096
-4096
8192
0
4096
-4096
8192
0
4096
-4096
8192
0
4096
-4096
8192
0
4096
-4096
8192
0
4096
-4096
8192
0
4096
-4096
8192
0
4096
-4096
8192
0
4096
-4096
8192
0
4096
-4096
8192
0
4096
-4096
8192
0
4096
-4096
8192
0
4096
-4096
8192
0
4096
-4096
8192
0
4096
-4096
8192
0
4096
-4096
8192
0
4096
-4096
8192
0
4096
-4096
8192
0
4096
-4096
8192
0
4096
-4096
8192
0
4096
-4096
8192
0
4096
-4096
8192
0
4096
-4096
8192
0
4096
-4096
8192
0
4096
-4096
8192
0
4096
-4096
8192
0
4096
-4096
8192
0
4096
-4096
8192
0
4096
-4096
8192
0
4096
-4096
8192
0
4096
-4096
8192
0
4096
-4096
8192
0
4096
-4096
8192
0
4096
-4096
8192
0
4096
-4096
8192
0
4096
-4096
8192
0
4096
-4096
8192
0
4096
-4096
8192
0
4096
-4096
8192
0
4096
-4096
8192
0
4096
-4096
8192
0
4096
-4096
8192
0
4096
-4096
8192
0
4096
-4096
8192
0
4096
-4096
8192
0
4096
-4096
8192
0
4096
-4096
8192
0
4096
-4096
8192
0
4096
-4096
8192
0
4096
-4096
8192
0
4096
-4096
8192
0
4096
-4096
8192
0
4096
-4096
8192
0
4096
-4096
8192
0
4096
-4096
8192
0
4096
-4096
8192
0
4096
-4096
8192
0
4096
-4096
8192
0
4096
-4096
8192
0
4096
-4096
8192
0
4096
-4096
8192
0
4096
-4096
8192
0
4096
-4096
8192
0
4096
-4096
8192
0
4096
-4096
8192
0
4096
-4096
8192
0
4096
-4096
8192
0
4096
-4096
8192
0
4096
-4096
8192
0
4096
-4096
8192
0
4096
-4096
8192
0
4096
-4096
8192
0
4096
-4096
8192
0
4096
-4096
8192
0
4096
-4096
8192
0
4096
-4096
8192
0
4096
-4096
8192
0
4096
-4096
8192
0
4096
-4096
8192
0
4096
-4096
8192
0
4096
-4096
8192
0
4096
-4096
8192
0
4096
-4096
8192
0
4096
-4096
8192
0
4096
-4096
8192
0
4096
-4096
8192
0
4096
-4096
8192
0
4096
-4096
8192
0
4096
-4096
8192
0
4096
-4096
8192
0
4096
-4096
8192
0
4096
-4096
8192
0
4096
-4096
8192
0
4096
-4096
8192
0
4096
-4096
8192
0
4096
-4096
8192
0
4096
-4096
8192
0
4096
-4096
8192
0
4096
-4096
8192
0
4096
-4096
8192
0
4096
-4096
8192
0
4096
-4096
8192
0
4096
-4096
8192
0
4096
-4096
8192
0
4096
-4096
8192
0
4096
-4096
8192
0
4096
-4096
8192
0
4096
-4096
8192
0
4096
-4096
8192
0
4096
-4096
8192
0
4096
-4096
8192
0
4096
-4096
8192
0
4096
-4096
8192
0
4096
-4096
8192
0
4096
-4096
8192
0
4096
-4096
8192
0
4096
-4096
8192
0
4096
-4096
8192
0
4096
-4096
8192
0
4096
-4096
8192
0
4096
-4096
8192
0
4096
-4096
8192
0
4096
-4096
8192
0
4096
-4096
8192
0
4096
-4096
8192
0
4096
-4096
8192
0
4096
-4096
8192
0
4096
-4096
8192
0
4096
-4096
8192
0
4096
-4096
8192
0
4096
-4096
8192
0
4096
-4096
8192
0
4096
-4096
8192
0
4096
-4096
8192
0
4096
-4096
8192
0
4096
-4096
8192
0
4096
-4096
8192
0
4096
-4096
8192
0
4096
-4096
8192
0
4096
-4096
8192
0
4096
-4096
8192
0
4096
-4096
8192
0
4096
-4096
8192
0
4096
-4096
8192
0
4096
-4096
8192
0
4096
-4096
8192
0
4096
-4096
8192
0
4096
-4096
8192
0
4096
-4096
8192
0
4096
-4096
8192
0
4096
-4096
8192
0
4096
-4096
8192
0
4096
-4096
8192
0
4096
-4096
8192
0
4096
-4096
8192
0
4096
-4096
8192
0
4096
-4096
8192
0
4096
-4096
8192
0
4096
-4096
8192
0
4096
-4096
8192
0
4096
-4096
8192
0
4096
-4096
8192
0
4096
-4096
8192
0
4096
-4096
8192
0
4096
-4096
8192
0
4096
-4096
8192
0
4096
-4096
8192
0
4096
-4096
8192
0
4096
-4096
8192
0
4096
-4096
8192
0
4096
-4096
8192
0
4096
-4096
8192
0
4096
-4096
8192
0
4096
-4096
8192
0
4096
-4096
8192
0
4096
-4096
8192
0
4096
-4096
8192
0
4096
-4096
8192
0
4096
-4096
8192
0
4096
-4096
8192
0
4096
-4096
8192
0
4096
-4096
8192
0
4096
-4096
8192
0
4096
-4096
8192
0
4096
-4096
8192
0
4096
-4096
8192
0
4096
-4096
8192
0
4096
-4096
8192
0
4096
-4096
8192
0
4096
-4096
8192
0
4096
-4096
8192
0
4096
-4096
8192
0
4096
-4096
8192
0
4096
-4096
8192
0
4096
-4096
8192
0
4096
-4096
8192
0
4096
-4096
8192
0
4096
-4096
8192
0
4096
-4096
8192
0
4096
-4096
8192
0
4096
-4096
8192
0
4096
-4096
8192
0
4096
-4096
8192
0
4096
-4096
8192
0
4096
-4096
8192
0
4096
-4096
8192
0
4096
-4096
8192
0
4096
-4096
8192
0
4096
-4096
8192
0
4096
-4096
8192
0
4096
-4096
8192
0
4096
-4096
8192
0
4096
-4096
8192
0
4096
-4096
8192
0
4096
-4096
8192
0
4096
-4096
8192
0
4096
-4096
8192
0
4096
-4096
8192
0
4096
-4096
8192
0
4096
-4096
8192
0
4096
-4096
8192
0
4096
-4096
8192
0
4096
-4096
8192
0
4096
-4096
8192
0
4096
-4096
8192
0
4096
-4096
8192
0
4096
-4096
8192
0
4096
-4096
8192
0
4096
-4096
8192
0
4096
-4096
8192
0
4096
-4096
8192
0
4096
-4096
8192
0
4096
-4096
8192
0
4096
-4096
8192
0
4096
-4096
8192
0
4096
-4096
8192
0
4096
-4096
8192
0
4096
-4096
8192
0
4096
-4096
8192
0
4096
-4096
8192
0
4096
-4096
8192
0
4096
-4096
8192
0
4096
-4096
8192
0
4096
-4096
8192
0
4096
-4096
8192
0
4096
-4096
8192
0
4096
-4096
8192
0
4096
-4096
8192
0
4096
-4096
8192
0
4096
-4096
8192
0
4096
-4096
8192
0
4096
-4096
8192
0
4096
-4096
8192
0
4096
-4096
8192
0
4096
-4096
8192
0
4096
-4096
8192
0
4096
-4096
8192
0
4096
-4096
8192
0
4096
-4096
8192
0
4096
-4096
8192
0
4096
-4096
8192
0
4096
-4096
8192
0
4096
-4096
8192
0
4096
-4096
8192
0
4096
-4096
8192
0
4096
-4096
8192
0
4096
-4096
8192
0
4096
-4096
8192
0
4096
-4096
8192
0
4096
-4096
8192
0
4096
-4096
8192
0
4096
-4096
8192
0
4096
-4096
8192
0
4096
-4096
8192
0
4096
-4096
8192
0
4096
-4096
8192
0
4096
-4096
8192
0
4096
-4096
8192
0
4096
-4096
8192
0
4096
-4096
8192
0
4096
-4096
8192
0
4096
-4096
8192
0
4096
-4096
8192
0
4096
-4096
8192
0
4096
-4096
8192
0
4096
-4096
8192
0
4096
-4096
8192
0
4096
-4096
8192
0
4096
-4096
8192
0
4096
-4096
8192
0
4096
-4096
8192
0
4096
-4096
8192
0
4096
-4096
8192
0
4096
-4096
8192
0
4096
-4096
8192
0
4096
-4096
8192
0
4096
-4096
8192
0
4096
-4096
8192
0
4096
-4096
8192
0
4096
-4096
8192
0
4096
-4096
8192
0
4096
-4096
8192
0
4096
-4096
8192
0
4096
-4096
8192
0
4096
-4096
8192
0
4096
-4096
8192
0
4096
-4096
8192
0
4096
-4096
8192
0
4096
-4096
8192
0
4096
-4096
8192
0
4096
-4096
8192
0
4096
-4096
8192
0
4096
-4096
8192
0
4096
-4096
8192
0
4096
-4096
8192
0
4096
-4096
8192
0
4096
-4096
8192
0
4096
-4096
8192
0
4096
-4096
8192
0
4096
-4096
8192
0
4096
-4096
8192
0
4096
-4096
8192
0
4096
-4096
8192
0
4096
-4096
8192
0
4096
-4096
8192
0
4096
-4096
8192
0
4096
-4096
8192
0
4096
-4096
8192
0
4096
-4096
8192
0
4096
-4096
8192
0
4096
-4096
8192
0
4096
-4096
8192
0
4096
-4096
8192
0
4096
-4096
8192
0
4096
-4096
8192
0
4096
-4096
8192
0
4096
-4096
8192
0
4096
-4096
8192
0
4096
-4096
8192
0
4096
-4096
8192
0
4096
-4096
8192
0
4096
-4096
8192
0
4096
-4096
8192
0
4096
-4096
8192
0
4096
-4096
8192
0
4096
-4096
8192
0
4096
-4096
8192
0
4096
-4096
8192
0
4096
-4096
8192
0
4096
-4096
8192
0
4096
-4096
8192
0
4096
-4096
8192
0
4096
-4096
8192
0
4096
-4096
8192
0
4096
-4096
8192
0
4096
-4096
8192
0
4096
-4096
8192
0
4096
-4096
8192
0
4096
-4096
8192
0
4096
-4096
8192
0
4096
-4096
8192
0
4096
-4096
8192
0
4096
-4096
8192
0
4096
-4096
8192
0
4096
-4096
8192
0
4096
-4096
8192
0
4096
-4096
8192
0
4096
-4096
8192
0
4096
-4096
8192
0
4096
-4096
8192
0
4096
-4096
8192
0
4096
-4096
8192
0
4096
-4096
8192
0
4096
-4096
8192
0
4096
-4096
8192
0
4096
-4096
8192
0
4096
-4096
8192
0
4096
-4096
8192
0
4096
-4096
8192
0
4096
-4096
8192
0
4096
-4096
8192
0
4096
-4096
8192
0
4096
-4096
8192
0
4096
-4096
8192
0
4096
-4096
8192
0
4096
-4096
8192
0
4096
-4096
8192
0
4096
-4096
8192
0
4096
-4096
8192
0
4096
-4096
8192
0
4096
-4096
8192
0
4096
-4096
8192
0
4096
-4096
8192
0
4096
-4096
8192
0
4096
-4096
8192
0
4096
-4096
8192
0
4096
-4096
8192
0
4096
-4096
8192
0
4096
-4096
8192
0
4096
-4096
8192
0
4096
-4096
8192
0
4096
-4096
8192
0
4096
-4096
8192
0
4096
-4096
8192
0
4096
-4096
8192
0
4096
-4096
8192
0
4096
-4096
8192
0
4096
-4096
8192
0
4096
-4096
8192
0
4096
-4096
8192
0
4096
-4096
8192
0
4096
-4096
8192
0
4096
-4096
8192
0
4096
-4096
8192
0
4096
-4096
8192
0
4096
-4096
8192
0
4096
-4096
8192
0
4096
-4096
8192
0
4096
-4096
8192
0
4096
-4096
8192
0
4096
-4096
8192
0
4096
-4096
8192
0
4096
-4096
8192
0
4096
-4096
8192
0
4096
-4096
8192
0
4096
-4096
8192
0
4096
-4096
8192
0
4096
-4096
8192
0
4096
-4096
8192
0
4096
-4096
8192
0
4096
-4096
8192
0
4096
-4096
8192
0
4096
-4096
8192
0
4096
-4096
8192
0
4096
-4096
8192
0
4096
-4096
8192
0
4096
-4096
8192
0
4096
-4096
8192
0
4096
-4096
8192
0
4096
-4096
8192
0
4096
-4096
8192
0
4096
-4096
8192
0
4096
-4096
8192
0
4096
-4096
8192
0
4096
-4096
8192
0
4096
-4096
8192
0
4096
-4096
8192
0
4096
-4096
8192
0
4096
-4096
8192
0
4096
-4096
8192
0
4096
-4096
8192
0
4096
-4096
8192
0
4096
-4096
8192
0
4096
-4096
8192
0
4096
-4096
8192
0
4096
-4096
8192
0
4096
-4096
8192
0
4096
-4096
8192
0
4096
-4096
8192
0
4096
-4096
8192
0
4096
-4096
8192
0
4096
-4096
8192
0
4096
-4096
8192
0
4096
-4096
8192
0
4096
-4096
8192
0
4096
-4096
8192
0
4096
-4096
8192
0
4096
-4096
8192
0
4096
-4096
8192
0
4096
-4096
8192
0
4096
-4096
8192
0
4096
-4096
8192
0
4096
-4096
8192
0
4096
-4096
8192
0
4096
-4096
8192
0
4096
-4096
8192
0
4096
-4096
8192
0
4096
-4096
8192
0
4096
-4096
8192
0
4096
-4096
8192
0
4096
-4096
8192
0
4096
-4096
8192
0
4096
-4096
8192
0
4096
-4096
8192
0
4096
-4096
8192
0
4096
-4096
8192
0
4096
-4096
8192
0
4096
-4096
8192
0
4096
-4096
8192
0
4096
-4096
8192
0
4096
-4096
8192
0
4096
-4096
8192
0
4096
-4096
8192
0
4096
-4096
8192
0
4096
-4096
8192
0
4096
-4096
8192
0
4096
-4096
8192
0
4096
-4096
8192
0
4096
-4096
8192
0
4096
-4096
8192
0
4096
-4096
8192
0
4096
-4096
8192
0
4096
-4096
8192
0
4096
-4096
8192
0
4096
-4096
8192
0
4096
-4096
8192
0
4096
-4096
8192
0
4096
-4096
8192
0
4096
-4096
8192
0
4096
-4096
8192
0
4096
-4096
8192
0
4096
-4096
8192
0
4096
-4096
8192
0
4096
-4096
8192
0
4096
-4096
8192
0
4096
-4096
8192
0
4096
-4096
8192
0
4096
-4096
8192
0
4096
-4096
8192
0
4096
-4096
8192
0
4096
-4096
8192
0
4096
-4096
8192
0
4096
-4096
8192
0
4096
-4096
8192
0
4096
-4096
8192
0
4096
-4096
8192
0
4096
-4096
8192
0
4096
-4096
8192
0
4096
-4096
8192
0
4096
-4096
8192
0
4096
-4096
8192
0
4096
-4096
8192
0
4096
-4096
8192
0
4096
-4096
8192
0
4096
-4096
8192
0
4096
-4096
8192
0
4096
-4096
8192
0
4096
-4096
8192
0
4096
-4096
8192
0
4096
-4096
8192
0
4096
-4096
8192
0
4096
-4096
8192
0
4096
-4096
8192
0
4096
-4096
8192
0
4096
-4096
8192
0
4096
-4096
8192
0
4096
-4096
8192
0
4096
-4096
8192
0
4096
-4096
8192
0
4096
-4096
8192
0
4096
-4096
8192
0
4096
-4096
8192
0
4096
-4096
8192
0
4096
-4096
8192
0
4096
-4096
8192
0
4096
-4096
8192
0
4096
-4096
8192
0
4096
-4096
8192
0
4096
-4096
8192
0
4096
-4096
8192
0
4096
-4096
8192
0
4096
-4096
8192
0
4096
-4096
8192
0
4096
-4096
8192
0
4096
-4096
8192
0
4096
-4096
8192
0
4096
-4096
8192
0
4096
-4096
8192
0
4096
-4096
8192
0
4096
-4096
8192
0
4096
-4096
8192
0
4096
-4096
8192
0
4096
-4096
8192
0
4096
-4096
8192
0
4096
-4096
8192
0
4096
-4096
8192
0
4096
-4096
8192
0
4096
-4096
8192
0
4096
-4096
8192
0
4096
-4096
8192
0
4096
-4096
8192
0
4096
-4096
8192
0
4096
-4096
8192
0
4096
-4096
8192
0
4096
-4096
8192
0
4096
-4096
8192
0
4096
-4096
8192
0
4096
-4096
8192
0
4096
-4096
8192
0
4096
-4096
8192
0
4096
-4096
8192
0
4096
-4096
8192
0
4096
-4096
8192
0
4096
-4096
8192
0
4096
-4096
8192
0
4096
-4096
8192
0
4096
-4096
8192
0
4096
-4096
8192
0
4096
-4096
8192
0
4096
-4096
8192
0
4096
-4096
8192
0
4096
-4096
8192
0
4096
-4096
8192
0
4096
-4096
8192
0
4096
-4096
8192
0
4096
-4096
8192
0
4096
-4096
8192
0
4096
-4096
8192
0
4096
-4096
8192
0
4096
-4096
8192
0
4096
-4096
8192
0
4096
-4096
8192
0
4096
-4096
8192
0
4096
-4096
8192
0
4096
-4096
8192
0
4096
-4096
8192
0
4096
-4096
8192
0
4096
-4096
8192
0
4096
-4096
8192
0
4096
-4096
8192
0
4096
-4096
8192
0
4096
-4096
8192
0
4096
-4096
8192
0
4096
-4096
8192
0
4096
-4096
8192
0
4096
-4096
8192
0
4096
-4096
8192
0
4096
-4096
8192
0
4096
-4096
8192
0
4096
-4096
8192
0
4096
-4096
8192
0
4096
-4096
8192
0
4096
-4096
8192
0
4096
-4096
8192
0
4096
-4096
8192
0
4096
-4096
8192
0
4096
-4096
8192
0
4096
-4096
8192
0
4096
-4096
8192
0
4096
-4096
8192
0
4096
-4096
8192
0
4096
-4096
8192
0
4096
-4096
8192
0
4096
-4096
8192
0
4096
-4096
8192
0
4096
-4096
8192
0
4096
-4096
8192
0
4096
-4096
8192
0
4096
-4096
8192
0
4096
-4096
8192
0
4096
-4096
8192
0
4096
-4096
8192
0
4096
-4096
8192
0
4096
-4096
8192
0
4096
-4096
8192
0
4096
-4096
8192
0
4096
-4096
8192
0
4096
-4096
8192
0
4096
-4096
8192
0
4096
-4096
8192
0
4096
-4096
8192
0
4096
-4096
8192
0
4096
-4096
8192
0
4096
-4096
8192
0
4096
-4096
8192
0
4096
-4096
8192
0
4096
-4096
8192
0
4096
-4096
8192
0
4096
-4096
8192
0
4096
-4096
8192
0
4096
-4096
8192
0
4096
-4096
8192
0
4096
-4096
8192
0
4096
-4096
8192
0
4096
-4096
8192
0
4096
-4096
8192
0
4096
-4096
8192
0
4096
-4096
8192
0
4096
-4096
8192
0
4096
-4096
8192
0
4096
-4096
8192
0
4096
-4096
8192
0
4096
-4096
8192
0
4096
-4096
8192
0
4096
-4096
8192
0
4096
-4096
8192
0
4096
-4096
8192
0
4096
-4096
8192
0
4096
-4096
8192
0
4096
-4096
8192
0
4096
-4096
8192
0
4096
-4096
8192
0
4096
-4096
8192
0
4096
-4096
8192
0
4096
-4096
8192
0
4096
-4096
8192
0
4096
-4096
8192
0
4096
-4096
8192
0
4096
-4096
8192
0
4096
-4096
8192
0
4096
-4096
8192
0
4096
-4096
8192
0
4096
-4096
8192
0
4096
-4096
8192
0
4096
-4096
8192
0
4096
-4096
8192
0
4096
-4096
8192
0
4096
-4096
8192
0
4096
-4096
8192
0
4096
-4096
8192
0
4096
-4096
8192
0
4096
-4096
8192
0
4096
-4096
8192
0
4096
-4096
8192
0
4096
-4096
8192
0
4096
-4096
8192
0
4096
-4096
8192
0
4096
-4096
8192
0
4096
-4096
8192
0
4096
-4096
8192
0
4096
-4096
8192
0
4096
-4096
8192
0
4096
-4096
8192
0
4096
-4096
8192
0
4096
-4096
8192
0
4096
-4096
8192
0
4096
-4096
8192
0
4096
-4096
8192
0
4096
-4096
8192
0
4096
-4096
8192
0
4096
-4096
8192
0
4096
-4096
8192
0
4096
-4096
8192
0
4096
-4096
8192
0
4096
-4096
8192
0
4096
-4096
8192
0
4096
-4096
8192
0
4096
-4096
8192
0
4096
-4096
8192
0
4096
-4096
8192
0
4096
-4096
8192
0
4096
-4096
8192
0
4096
-4096
8192
0
4096
-4096
8192
0
4096
-4096
8192
0
4096
-4096
8192
0
4096
-4096
8192
0
4096
-4096
8192
0
4096
-4096
8192
0
4096
-4096
8192
0
4096
-4096
8192
0
4096
-4096
8192
0
4096
-4096
8192
0
4096
-4096
8192
0
4096
-4096
8192
0
4096
-4096
8192
0
4096
-4096
8192
0
4096
-4096
8192
0
4096
-4096
8192
0
4096
-4096
8192
0
4096
-4096
8192
0
4096
-4096
8192
0
4096
-4096
8192
0
4096
-4096
8192
0
4096
-4096
8192
0
4096
-4096
8192
0
4096
-4096
8192
0
4096
-4096
8192
0
4096
-4096
8192
0
4096
-4096
8192
0
4096
-4096
8192
0
4096
-4096
8192
0
4096
-4096
8192
0
4096
-4096
8192
0
4096
-4096
8192
0
4096
-4096
8192
0
4096
-4096
8192
0
4096
-4096
8192
0
4096
-4096
8192
0
4096
-4096
8192
0
4096
-4096
8192
0
4096
-4096
8192
0
4096
-4096
8192
0
4096
-4096
8192
0
4096
-4096
8192
0
4096
-4096
8192
0
4096
-4096
8192
0
4096
-4096
8192
0
4096
-4096
8192
0
4096
-4096
8192
0
4096
-4096
8192
0
4096
-4096
8192
0
4096
-4096
8192
0
4096
-4096
8192
0
4096
-4096
8192
0
4096
-4096
8192
0
4096
-4096
8192
0
4096
-4096
8192
0
4096
-4096
8192
0
4096
-4096
8192
0
4096
-4096
8192
0
4096
-4096
8192
0
4096
-4096
8192
0
4096
-4096
8192
0
4096
-4096
8192
0
4096
-4096
8192
0
4096
-4096
8192
0
4096
-4096
8192
0
4096
-4096
8192
0
4096
-4096
8192
0
4096
-4096
8192
0
4096
-4096
8192
0
4096
-4096
8192
0
4096
-4096
8192
0
4096
-4096
8192
0
4096
-4096
8192
0
4096
-4096
8192
0
4096
-4096
8192
0
4096
-4096
8192
0
4096
-4096
8192
0
4096
-4096
8192
0
4096
-4096
8192
0
4096
-4096
8192
0
4096
-4096
8192
0
4096
-4096
8192
0
4096
-4096
8192
0
4096
-4096
8192
0
4096
-4096
8192
0
4096
-4096
8192
0
4096
-4096
8192
0
4096
-4096
8192
0
4096
-4096
8192
0
4096
-4096
8192
0
4096
-4096
8192
0
4096
-4096
8192
0
4096
-4096
8192
0
4096
-4096
8192
0
4096
-4096
8192
0
4096
-4096
8192
0
4096
-4096
8192
0
4096
-4096
8192
0
4096
-4096
8192
0
4096
-4096
8192
0
4096
-4096
8192
0
4096
-4096
8192
0
4096
-4096
8192
0
4096
-4096
8192
0
4096
-4096
8192
0
4096
-4096
8192
0
4096
-4096
8192
0
4096
-4096
8192
0
4096
-4096
8192
0
4096
-4096
8192
0
4096
-4096
8192
0
4096
-4096
8192
0
4096
-4096
8192
0
4096
-4096
8192
0
4096
-4096
8192
0
4096
-4096
8192
0
4096
-4096
8192
0
4096
-4096
8192
0
4096
-4096
8192
0
4096
-4096
8192
0
4096
-4096
8192
0
4096
-4096
8192
0
4096
-4096
8192
0
4096
-4096
8192
0
4096
-4096
8192
0
4096
-4096
8192
0
4096
-4096
8192
0
4096
-4096
8192
0
4096
-4096
8192
0
4096
-4096
8192
0
4096
-4096
8192
0
4096
-4096
8192
0
4096
-4096
8192
0
4096
-4096
8192
0
4096
-4096
8192
0
4096
-4096
8192
0
4096
-4096
8192
0
4096
-4096
8192
0
4096
-4096
8192
0
4096
-4096
8192
0
4096
-4096
8192
0
4096
-4096
8192
0
4096
-4096
8192
0
4096
-4096
8192
0
4096
-4096
8192
0
4096
-4096
8192
0
4096
-4096
8192
0
4096
-4096
8192
0
4096
-4096
8192
0
4096
-4096
8192
0
4096
-4096
8192
0
4096
-4096
8192
0
4096
-4096
8192
0
4096
-4096
8192
0
4096
-4096
8192
0
4096
-4096
8192
0
4096
-4096
8192
0
4096
-4096
8192
0
4096
-4096
8192
0
4096
-4096
8192
0
4096
-4096
8192
0
4096
-4096
8192
0
4096
-4096
8192
0
4096
-4096
8192
0
4096
-4096
8192
0
4096
-4096
8192
0
4096
-4096
8192
0
4096
-4096
8192
0
4096
-4096
8192
0
4096
-4096
8192
0
4096
-4096
8192
0
4096
-4096
8192
0
4096
-4096
8192
0
4096
-4096
8192
0
4096
-4096
8192
0
4096
-4096
8192
0
4096
-4096
8192
0
4096
-4096
8192
0
4096
-4096
8192
0
4096
-4096
8192
0
4096
-4096
8192
0
4096
-4096
8192
0
4096
-4096
8192
0
4096
-4096
8192
0
4096
-4096
8192
0
4096
-4096
8192
0
4096
-4096
8192
0
4096
-4096
8192
0
4096
-4096
8192
0
4096
-4096
8192
0
4096
-4096
8192
0
4096
-4096
8192
0
4096
-4096
8192
0
4096
-4096
8192
0
4096
-4096
8192
0
4096
-4096
8192
0
4096
-4096
8192
0
4096
-4096
8192
0
4096
-4096
8192
0
4096
-4096
8192
0
4096
-4096
8192
0
4096
-4096
8192
0
4096
-4096
8192
0
4096
-4096
8192
0
4096
-4096
8192
0
4096
-4096
8192
0
4096
-4096
8192
0
4096
-4096
8192
0
4096
-4096
8192
0
4096
-4096
8192
0
4096
-4096
8192
0
4096
-4096
8192
0
4096
-4096
8192
0
4096
-4096
8192
0
4096
-4096
8192
0
4096
-4096
8192
0
4096
-4096
8192
0
4096
-4096
8192
0
4096
-4096
8192
0
4096
-4096
8192
0
4096
-4096
8192
0
4096
-4096
8192
0
4096
-4096
8192
0
4096
-4096
8192
0
4096
-4096
8192
0
4096
-4096
8192
0
4096
-4096
8192
0
4096
-4096
8192
0
4096
-4096
8192
0
4096
-4096
8192
0
4096
-4096
8192
0
4096
-4096
8192
0
4096
-4096
8192
0
4096
-4096
8192
0
4096
-4096
8192
0
4096
-4096
8192
0
4096
-4096
8192
0
4096
-4096
8192
0
4096
-4096
8192
0
4096
-4096
8192
0
4096
-4096
8192
0
4096
-4096
8192
0
4096
-4096
8192
0
4096
-4096
8192
0
4096
-4096
8192
0
4096
-4096
8192
0
4096
-4096
8192
0
4096
-4096
8192
0
4096
-4096
8192
0
4096
-4096
8192
0
4096
-4096
8192
0
4096
-4096
8192
0
4096
-4096
8192
0
4096
-4096
8192
0
4096
-4096
8192
0
4096
-4096
8192
0
4096
-4096
8192
0
4096
-4096
8192
0
4096
-4096
8192
0
4096
-4096
8192
0
4096
-4096
8192
0
4096
-4096
8192
0
4096
-4096
8192
0
4096
-4096
8192
0
4096
-4096
8192
0
4096
-4096
8192
0
4096
-4096
8192
0
4096
-4096
8192
0
4096
-4096
8192
0
4096
-4096
8192
0
4096
-4096
8192
0
4096
-4096
8192
0
4096
-4096
8192
0
4096
-4096
8192
0
4096
-4096
8192
0
4096
-4096
8192
0
4096
-4096
8192
0
4096
-4096
8192
0
4096
-4096
8192
0
4096
-4096
8192
0
4096
-4096
8192
0
4096
-4096
8192
0
4096
-4096
8192
0
4096
-4096
8192
0
4096
-4096
8192
0
4096
-4096
8192
0
4096
-4096
8192
0
4096
-4096
8192
0
4096
-4096
8192
0
4096
-4096
8192
0
4096
-4096
8192
0
4096
-4096
8192
0
4096
-4096
8192
0
4096
-4096
8192
0
4096
-4096
8192
0
4096
-4096
8192
0
4096
-4096
8192
0
4096
-4096
8192
0
4096
-4096
8192
0
4096
-4096
8192
0
4096
-4096
8192
0
4096
-4096
8192
0
4096
-4096
8192
0
4096
-4096
8192
0
4096
-4096
8192
0
4096
-4096
8192
0
4096
-4096
8192
0
4096
-4096
8192
0
4096
-4096
8192
0
4096
-4096
8192
0
4096
-4096
8192
0
4096
-4096
8192
0
4096
-4096
8192
0
4096
-4096
8192
0
4096
-4096
8192
0
4096
-4096
8192
0
4096
-4096
8192
0
4096
-4096
8192
0
4096
-4096
8192
0
4096
-4096
8192
0
4096
-4096
8192
0
4096
-4096
8192
0
4096
-4096
8192
0
4096
-4096
8192
0
4096
-4096
8192
0
4096
-4096
8192
0
4096
-4096
8192
0
4096
-4096
8192
0
4096
-4096
8192
0
4096
-4096
8192
0
4096
-4096
8192
0
4096
-4096
8192
0
4096
-4096
8192
0
4096
-4096
8192
0
4096
-4096
8192
0
4096
-4096
8192
0
4096
-4096
8192
0
4096
-4096
8192
0
4096
-4096
8192
0
4096
-4096
8192
0
4096
-4096
8192
0
4096
-4096
8192
0
4096
-4096
8192
0
4096
-4096
8192
0
4096
-4096
8192
0
4096
-4096
8192
0
4096
-4096
8192
0
4096
-4096
8192
0
4096
-4096
8192
0
4096
-4096
8192
0
4096
-4096
8192
0
4096
-4096
8192
0
4096
-4096
8192
0
4096
-4096
8192
0
4096
-4096
8192
0
4096
-4096
8192
0
4096
-4096
8192
0
4096
-4096
8192
0
4096
-4096
8192
0
4096
-4096
8192
0
4096
-4096
8192
0
4096
-4096
8192
0
4096
-4096
8192
0
4096
-4096
8192
0
4096
-4096
8192
0
4096
-4096
8192
0
4096
-4096
8192
0
4096
-4096
8192
0
4096
-4096
8192
0
4096
-4096
8192
0
4096
-4096
8192
0
4096
-4096
8192
0
4096
-4096
8192
0
4096
-4096
8192
0
4096
-4096
8192
0
4096
-4096
8192
0
4096
-4096
8192
0
4096
-4096
8192
0
4096
-4096
8192
0
4096
-4096
8192
0
4096
-4096
8192
0
4096
-4096
8192
0
4096
-4096
8192
0
4096
-4096
8192
0
4096
-4096
8192
0
4096
-4096
8192
0
4096
-4096
8192
0
4096
-4096
8192
0
4096
-4096
8192
0
4096
-4096
8192
0
4096
-4096
8192
0
4096
-4096
8192
0
4096
-4096
8192
0
4096
-4096
8192
0
4096
-4096
8192
0
4096
-4096
8192
0
4096
-4096
8192
0
4096
-4096
8192
0
4096
-4096
8192
0
4096
-4096
8192
0
4096
-4096
8192
0
4096
-4096
8192
0
4096
-4096
8192
0
4096
-4096
8192
0
4096
-4096
8192
0
4096
-4096
8192
0
4096
-4096
8192
0
4096
-4096
8192
0
4096
-4096
8192
0
4096
-4096
8192
0
4096
-4096
8192
0
4096
-4096
8192
0
4096
-4096
8192
0
4096
-4096
8192
0
4096
-4096
8192
0
4096
-4096
8192
0
4096
-4096
8192
0
4096
-4096
8192
0
4096
-4096
8192
0
4096
-4096
8192
0
4096
-4096
8192
0
4096
-4096
8192
0
4096
-4096
8192
0
4096
-4096
8192
0
4096
-4096
8192
0
4096
-4096
8192
0
4096
-4096
8192
0
4096
-4096
8192
0
4096
-4096
8192
0
4096
-4096
8192
0
4096
-4096
8192
0
4096
-4096
8192
0
4096
-4096
8192
0
4096
-4096
8192
0
4096
-4096
8192
0
4096
-4096
8192
0
4096
-4096
8192
0
4096
-4096
8192
0
4096
-4096
8192
0
4096
-4096
8192
0
4096
-4096
8192
0
4096
-4096
8192
0
4096
-4096
8192
0
4096
-4096
8192
0
4096
-4096
8192
0
4096
-4096
8192
0
4096
-4096
8192
0
4096
-4096
8192
0
4096
-4096
8192
0
4096
-4096
8192
0
4096
-4096
8192
0
4096
-4096
8192
0
4096
-4096
8192
0
4096
-4096
8192
0
4096
-4096
8192
0
4096
-4096
8192
0
4096
-4096
8192
0
4096
-4096
8192
0
4096
-4096
8192
0
4096
-4096
8192
0
4096
-4096
8192
0
4096
-4096
8192
0
4096
-4096
8192
0
4096
-4096
8192
0
4096
-4096
8192
0
4096
-4096
8192
0
4096
-4096
8192
0
4096
-4096
8192
0
4096
-4096
8192
0
4096
-4096
8192
0
4096
-4096
8192
0
4096
-4096
8192
0
4096
-4096
8192
0
4096
-4096
8192
0
4096
-4096
8192
0
4096
-4096
8192
0
4096
-4096
8192
0
4096
-4096
8192
0
4096
-4096
8192
0
4096
-4096
8192
0
4096
-4096
8192
0
4096
-4096
8192
0
4096
-4096
8192
0
4096
-4096
8192
0
4096
-4096
8192
0
4096
-4096
8192
0
4096
-4096
8192
0
4096
-4096
8192
0
4096
-4096
8192
0
4096
-4096
8192
0
4096
-4096
8192
0
4096
-4096
8192
0
4096
-4096
8192
0
4096
-4096
8192
0
4096
-4096
8192
0
4096
-4096
8192
0
4096
-4096
8192
0
4096
-4096
8192
0
4096
-4096
8192
0
4096
-4096
8192
0
4096
-4096
8192
0
4096
-4096
8192
0
4096
-4096
8192
0
4096
-4096
8192
0
4096
-4096
8192
0
4096
-4096
8192
0
4096
-4096
8192
0
4096
-4096
8192
0
4096
-4096
8192
0
4096
-4096
8192
0
4096
-4096
8192
0
4096
-4096
8192
0
4096
-4096
8192
0
4096
-4096
8192
0
4096
-4096
8192
0
4096
-4096
8192
0
4096
-4096
8192
0
4096
-4096
8192
0
4096
-4096
8192
0
4096
-4096
8192
0
4096
-4096
8192
0
4096
-4096
8192
0
4096
-4096
8192
0
4096
-4096
8192
0
4096
-4096
8192
0
4096
-4096
8192
0
4096
-4096
8192
0
4096
-4096
8192
0
4096
-4096
8192
0
4096
-4096
8192
0
4096
-4096
8192
0
4096
-4096
8192
0
4096
-4096
8192
0
4096
-4096
8192
0
4096
-4096
8192
0
4096
-4096
8192
0
4096
-4096
8192
0
4096
-4096
8192
0
4096
-4096
8192
0
4096
-4096
8192
0
4096
-4096
8192
0
4096
-4096
8192
0
4096
-4096
8192
0
4096
-4096
8192
0
4096
-4096
8192
0
4096
-4096
8192
0
4096
-4096
8192
0
4096
-4096
8192
0
4096
-4096
8192
0
4096
-4096
8192
0
4096
-4096
8192
0
4096
-4096
8192
0
4096
-4096
8192
0
4096
-4096
8192
0
4096
-4096
8192
0
4096
-4096
8192
0
4096
-4096
8192
0
4096
-4096
8192
0
4096
-4096
8192
0
4096
-4096
8192
0
4096
-4096
8192
0
4096
-4096
8192
0
4096
-4096
8192
0
4096
-4096
8192
0
4096
-4096
8192
0
4096
-4096
8192
0
4096
-4096
8192
0
4096
-4096
8192
0
4096
-4096
8192
0
4096
-4096
8192
0
4096
-4096
8192
0
4096
-4096
8192
0
4096
-4096
8192
0
4096
-4096
8192
0
4096
-4096
8192
0
4096
-4096
8192
0
4096
-4096
8192
0
4096
-4096
8192
0
4096
-4096
8192
0
4096
-4096
8192
0
4096
-4096
8192
0
4096
-4096
8192
0
4096
-4096
8192
0
4096
-4096
8192
0
4096
-4096
8192
0
4096
-4096
8192
0
4096
-4096
8192
0
4096
-4096
8192
0
4096
-4096
8192
0
4096
-4096
8192
0
4096
-4096
8192
0
4096
-4096
8192
0
4096
-4096
8192
0
4096
-4096
8192
0
4096
-4096
8192
0
4096
-4096
8192
0
4096
-4096
8192
0
4096
-4096
8192
0
4096
-4096
8192
0
4096
-4096
8192
0
4096
-4096
8192
0
4096
-4096
8192
0
4096
-4096
8192
0
4096
-4096
8192
0
4096
-4096
8192
0
4096
-4096
8192
0
4096
-4096
8192
0
4096
-4096
8192
0
4096
-4096
8192
0
4096
-4096
8192
0
4096
-4096
8192
0
4096
-4096
8192
0
4096
-4096
8192
0
4096
-4096
8192
0
4096
-4096
8192
0
4096
-4096
8192
0
4096
-4096
8192
0
4096
-4096
8192
0
4096
-4096
8192
0
4096
-4096
8192
0
4096
-4096
8192
0
4096
-4096
8192
0
4096
-4096
8192
0
4096
-4096
8192
0
4096
-4096
8192
0
4096
-4096
8192
0
4096
-4096
8192
0
4096
-4096
8192
0
4096
-4096
8192
0
4096
-4096
8192
0
4096
-4096
8192
0
4096
-4096
8192
0
4096
-4096
8192
0
4096
-4096
8192
0
4096
-4096
8192
0
4096
-4096
8192
0
4096
-4096
8192
0
4096
-4096
8192
0
4096
-4096
8192
0
4096
-4096
8192
0
4096
-4096
8192
0
4096
-4096
8192
0
4096
-4096
8192
0
4096
-4096
8192
0
4096
-4096
8192
0
4096
-4096
8192
0
4096
-4096
8192
0
4096
-4096
8192
0
4096
-4096
8192
0
4096
-4096
8192
0
4096
-4096
8192
0
4096
-4096
8192
0
4096
-4096
8192
0
4096
-4096
8192
0
4096
-4096
8192
0
4096
-4096
8192
0
4096
-4096
8192
0
4096
-4096
8192
0
4096
-4096
8192
0
4096
-4096
8192
0
4096
-4096
8192
0
4096
-4096
8192
0
4096
-4096
8192
0
4096
-4096
8192
0
4096
-4096
8192
0
4096
-4096
8192
0
4096
-4096
8192
0
4096
-4096
8192
0
4096
-4096
8192
0
4096
-4096
8192
0
4096
-4096
8192
0
4096
-4096
8192
0
4096
-4096
8192
0
4096
-4096
8192
0
4096
-4096
8192
0
4096
-4096
8192
0
4096
-4096
8192
0
4096
-4096
8192
0
4096
-4096
8192
0
4096
-4096
8192
0
4096
-4096
8192
0
4096
-4096
8192
0
4096
-4096
8192
0
4096
-4096
8192
0
4096
-4096
8192
0
4096
-4096
8192
0
4096
-4096
8192
0
4096
-4096
8192
0
4096
-4096
8192
0
4096
-4096
8192
0
4096
-4096
8192
0
4096
-4096
8192
0
4096
-4096
8192
0
4096
-4096
8192
0
4096
-4096
8192
0
4096
-4096
8192
0
4096
-4096
8192
0
4096
-4096
8192
0
4096
-4096
8192
0
4096
-4096
8192
0
4096
-4096
8192
0
4096
-4096
8192
0
4096
-4096
8192
0
4096
-4096
8192
0
4096
-4096
8192
0
4096
-4096
8192
0
4096
-4096
8192
0
4096
-4096
8192
0
4096
-4096
8192
0
4096
-4096
8192
0
4096
-4096
8192
0
4096
-4096
8192
0
4096
-4096
8192
0
4096
-4096
8192
0
4096
-4096
8192
0
4096
-4096
8192
0
4096
-4096
8192
0
4096
-4096
8192
0
4096
-4096
8192
0
4096
-4096
8192
0
4096
-4096
8192
0
4096
-4096
8192
0
4096
-4096
8192
0
4096
-4096
8192
0
4096
-4096
8192
0
4096
-4096
8192
0
4096
-4096
8192
0
4096
-4096
8192
0
4096
-4096
8192
0
4096
-4096
8192
0
4096
-4096
8192
0
4096
-4096
8192
0
4096
-4096
8192
0
4096
-4096
8192
0
4096
-4096
8192
0
4096
-4096
8192
0
4096
-4096
8192
0
4096
-4096
8192
0
4096
-4096
8192
0
4096
-4096
8192
0
4096
-4096
8192
0
4096
-4096
8192
0
4096
-4096
8192
0
4096
-4096
8192
0
4096
-4096
8192
0
4096
-4096
8192
0
4096
-4096
8192
0
4096
-4096
8192
0
4096
-4096
8192
0
4096
-4096
8192
0
4096
-4096
8192
0
4096
-4096
8192
0
4096
-4096
8192
0
4096
-4096
8192
0
4096
-4096
8192
0
4096
-4096
8192
0
4096
-4096
8192
0
4096
-4096
8192
0
4096
-4096
8192
0
4096
-4096
8192
0
4096
-4096
8192
0
4096
-4096
8192
0
4096
-4096
8192
0
4096
-4096
8192
0
4096
-4096
8192
0
4096
-4096
8192
0
4096
-4096
8192
0
4096
-4096
8192
0
4096
-4096
8192
0
4096
-4096
8192
0
4096
-4096
8192
0
4096
-4096
8192
0
4096
-4096
8192
0
4096
-4096
8192
0
4096
-4096
8192
0
4096
-4096
8192
0
4096
-4096
8192
0
4096
-4096
8192
0
4096
-4096
8192
0
4096
-4096
8192
0
4096
-4096
8192
0
4096
-4096
8192
0
4096
-4096
8192
0
4096
-4096
8192
0
4096
-4096
8192
0
4096
-4096
8192
0
4096
-4096
8192
0
4096
-4096
8192
0
4096
-4096
8192
0
4096
-4096
8192
0
4096
-4096
8192
0
4096
-4096
8192
0
4096
-4096
8192
0
4096
-4096
8192
0
4096
-4096
8192
0
4096
-4096
8192
0
4096
-4096
8192
0
4096
-4096
8192
0
4096
-4096
8192
0
4096
-4096
8192
0
4096
-4096
8192
0
4096
-4096
8192
0
4096
-4096
8192
0
4096
-4096
8192
0
4096
-4096
8192
0
4096
-4096
8192
0
4096
-4096
8192
0
4096
-4096
8192
0
4096
-4096
8192
0
4096
-4096
8192
0
4096
-4096
8192
0
4096
-4096
8192
0
4096
-4096
8192
0
4096
-4096
8192
0
4096
-4096
8192
0
4096
-4096
8192
0
4096
-4096
8192
0
4096
-4096
8192
0
4096
-4096
8192
0
4096
-4096
8192
0
4096
-4096
8192
0
4096
-4096
8192
0
4096
-4096
8192
0
4096
-4096
8192
0
4096
-4096
8192
0
4096
-4096
8192
0
4096
-4096
8192
0
4096
-4096
8192
0
4096
-4096
8192
0
4096
-4096
8192
0
4096
-4096
8192
0
4096
-4096
8192
0
4096
-4096
8192
0
4096
-4096
8192
0
4096
-4096
8192
0
4096
-4096
8192
0
4096
-4096
8192
0
4096
-4096
8192
0
4096
-4096
8192
0
4096
-4096
8192
0
4096
-4096
8192
0
4096
-4096
8192
0
4096
-4096
8192
0
4096
-4096
8192
0
4096
-4096
8192
0
4096
-4096
8192
0
4096
-4096
8192
0
4096
-4096
8192
0
4096
-4096
8192
0
4096
-4096
8192
0
4096
-4096
8192
0
4096
-4096
8192
0
4096
-4096
8192
0
4096
-4096
8192
0
4096
-4096
8192
0
4096
-4096
8192
0
4096
-4096
8192
0
4096
-4096
8192
0
4096
-4096
8192
0
4096
-4096
8192
0
4096
-4096
8192
0
4096
-4096
8192
0
4096
-4096
8192
0
4096
-4096
8192
0
4096
-4096
8192
0
4096
-4096
8192
0
4096
-4096
8192
0
4096
-4096
8192
0
4096
-4096
8192
0
4096
-4096
8192
0
4096
-4096
8192
0
4096
-4096
8192
0
4096
-4096
8192
0
4096
-4096
8192
0
4096
-4096
8192
0
4096
-4096
8192
0
4096
-4096
8192
0
4096
-4096
8192
0
4096
-4096
8192
0
4096
-4096
8192
0
4096
-4096
8192
0
4096
-4096
8192
0
4096
-4096
8192
0
4096
-4096
8192
0
4096
-4096
8192
0
4096
-4096
8192
0
4096
-4096
8192
0
4096
-4096
8192
0
4096
-4096
8192
0
4096
-4096
8192
0
4096
-4096
8192
0
4096
-4096
8192
0
4096
-4096
8192
0
4096
-4096
8192
0
4096
-4096
8192
0
4096
-4096
8192
0
4096
-4096
8192
0
4096
-4096
8192
0
4096
-4096
8192
0
4096
-4096
8192
0
4096
-4096
8192
0
4096
-4096
8192
0
4096
-4096
8192
0
4096
-4096
8192
0
4096
-4096
8192
0
4096
-4096
8192
0
4096
-4096
8192
0
4096
-4096
8192
0
4096
-4096
8192
0
4096
-4096
8192
0
4096
-4096
8192
0
4096
-4096
8192
0
4096
-4096
8192
0
4096
-4096
8192
0
4096
-4096
8192
0
4096
-4096
8192
0
4096
-4096
8192
0
4096
-4096
8192
0
4096
-4096
8192
0
4096
-4096
8192
0
4096
-4096
8192
0
4096
-4096
8192
0
4096
-4096
8192
0
4096
-4096
8192
0
4096
-4096
8192
0
4096
-4096
8192
0
4096
-4096
8192
0
4096
-4096
8192
0
4096
-4096
8192
0
4096
-4096
8192
0
4096
-4096
8192
0
4096
-4096
8192
0
4096
-4096
8192
0
4096
-4096
8192
0
4096
-4096
8192
0
4096
-4096
8192
0
4096
-4096
8192
0
4096
-4096
8192
0
4096
-4096
8192
0
4096
-4096
8192
0
4096
-4096
8192
0
4096
-4096
8192
0
4096
-4096
8192
0
4096
-4096
8192
0
4096
-4096
8192
0
4096
-4096
8192
0
4096
-4096
8192
0
4096
-4096
8192
0
4096
-4096
8192
0
4096
-4096
8192
0
4096
-4096
8192
0
4096
-4096
8192
0
4096
-4096
8192
0
4096
-4096
8192
0
4096
-4096
8192
0
4096
-4096
8192
0
4096
-4096
8192
0
4096
-4096
8192
0
4096
-4096
8192
0
4096
-4096
8192
0
4096
-4096
8192
0
4096
-4096
8192
0
4096
-4096
8192
0
4096
-4096
8192
0
4096
-4096
8192
0
4096
-4096
8192
0
4096
-4096
8192
0
4096
-4096
8192
0
4096
-4096
8192
0
4096
-4096
8192
0
4096
-4096
8192
0
4096
-4096
8192
0
4096
-4096
8192
0
4096
-4096
8192
0
4096
-4096
8192
0
4096
-4096
8192
0
4096
-4096
8192
0
4096
-4096
8192
0
4096
-4096
8192
0
4096
-4096
8192
0
4096
-4096
8192
0
4096
-4096
8192
0
4096
-4096
8192
0
4096
-4096
8192
0
4096
-4096
8192
0
4096
-4096
8192
0
4096
-4096
8192
0
4096
-4096
8192
0
4096
-4096
8192
0
4096
-4096
8192
0
4096
-4096
8192
0
4096
-4096
8192
0
4096
-4096
8192
0
4096
-4096
8192
0
4096
-4096
8192
0
4096
-4096
8192
0
4096
-4096
8192
0
4096
-4096
8192
0
4096
-4096
8192
0
4096
-4096
8192
0
4096
-4096
8192
0
4096
-4096
8192
0
4096
-4096
8192
0
4096
-4096
8192
0
4096
-4096
8192
0
4096
-4096
8192
0
4096
-4096
8192
0
4096
-4096
8192
0
4096
-4096
8192
0
4096
-4096
8192
0
4096
-4096
8192
0
4096
-4096
8192
0
4096
-4096
8192
0
4096
-4096
8192
0
4096
-4096
8192
0
4096
-4096
8192
0
4096
-4096
8192
0
4096
-4096
8192
0
4096
-4096
8192
0
4096
-4096
8192
0
4096
-4096
8192
0
4096
-4096
8192
0
4096
-4096
8192
0
4096
-4096
8192
0
4096
-4096
8192
0
4096
-4096
8192
0
4096
-4096
8192
0
4096
-4096
8192
0
4096
-4096
8192
0
4096
-4096
8192
0
4096
-4096
8192
0
4096
-4096
8192
0
4096
-4096
8192
0
4096
-4096
8192
0
4096
-4096
8192
0
4096
-4096
8192
0
4096
-4096
8192
0
4096
-4096
8192
0
4096
-4096
8192
0
4096
-4096
8192
0
4096
-4096
8192
0
4096
-4096
8192
0
4096
-4096
8192
0
4096
-4096
8192
0
4096
-4096
8192
0
4096
-4096
8192
0
4096
-4096
8192
0
4096
-4096
8192
0
4096
-4096
8192
0
4096
-4096
8192
0
4096
-4096
8192
0
4096
-4096
8192
0
4096
-4096
8192
0
4096
-4096
8192
0
4096
-4096
8192
0
4096
-4096
8192
0
4096
-4096
8192
0
4096
-4096
8192
0
4096
-4096
8192
0
4096
-4096
8192
0
4096
-4096
8192
0
4096
-4096
8192
0
4096
-4096
8192
0
4096
-4096
8192
0
4096
-4096
8192
0
4096
-4096
8192
0
4096
-4096
8192
0
4096
-4096
8192
0
4096
-4096
8192
0
4096
-4096
8192
0
4096
-4096
8192
0
4096
-4096
8192
0
4096
-4096
8192
0
4096
-4096
8192
0
4096
-4096
8192
0
4096
-4096
8192
0
4096
-4096
8192
0
4096
-4096
8192
0
4096
-4096
8192
0
4096
-4096
8192
0
4096
-4096
8192
0
4096
-4096
8192
0
4096
-4096
8192
0
4096
-4096
8192
0
4096
-4096
8192
0
4096
-4096
8192
0
4096
-4096
8192
0
4096
-4096
8192
0
4096
-4096
8192
0
4096
-4096
8192
0
4096
-4096
8192
0
4096
-4096
8192
0
4096
-4096
8192
0
4096
-4096
8192
0
4096
-4096
8192
0
4096
-4096
8192
0
4096
-4096
8192
0
4096
-4096
8192
0
4096
-4096
8192
0
4096
-4096
8192
0
4096
-4096
8192
0
4096
-4096
8192
0
4096
-4096
8192
0
4096
-4096
8192
0
4096
-4096
8192
0
4096
-4096
8192
0
4096
-4096
8192
0
4096
-4096
8192
0
4096
-4096
8192
0
4096
-4096
8192
0
4096
-4096
8192
0
4096
-4096
8192
0
4096
-4096
8192
0
4096
-4096
8192
0
4096
-4096
8192
0
4096
-4096
8192
0
4096
-4096
8192
0
4096
-4096
8192
0
4096
-4096
8192
0
4096
-4096
8192
0
4096
-4096
8192
0
4096
-4096
8192
0
4096
-4096
8192
0
4096
-4096
8192
0
4096
-4096
8192
0
4096
-4096
8192
0
4096
-4096
8192
0
4096
-4096
8192
0
4096
-4096
8192
0
4096
-4096
8192
0
4096
-4096
8192
0
4096
-4096
8192
0
4096
-4096
8192
0
4096
-4096
8192
0
4096
-4096
8192
0
4096
-4096
8192
0
4096
-4096
8192
0
4096
-4096
8192
0
4096
-4096
8192
0
4096
-4096
8192
0
4096
-4096
8192
0
4096
-4096
8192
0
4096
-4096
8192
0
4096
-4096
8192
0
4096
-4096
8192
0
4096
-4096
8192
0
4096
-4096
8192
0
4096
-4096
8192
0
4096
-4096
8192
0
4096
-4096
8192
0
4096
-4096
8192
0
4096
-4096
8192
0
4096
-4096
8192
0
4096
-4096
8192
0
4096
-4096
8192
0
4096
-4096
8192
0
4096
-4096
8192
0
4096
-4096
8192
0
4096
-4096
8192
0
4096
-4096
8192
0
4096
-4096
8192
0
4096
-4096
8192
0
4096
-4096
8192
0
4096
-4096
8192
0
4096
-4096
8192
0
4096
-4096
8192
0
4096
-4096
8192
0
4096
-4096
8192
0
4096
-4096
8192
0
4096
-4096
8192
0
4096
-4096
8192
0
4096
-4096
8192
0
4096
-4096
8192
0
4096
-4096
8192
0
4096
-4096
8192
0
4096
-4096
8192
0
4096
-4096
8192
0
4096
-4096
8192
0
4096
-4096
8192
0
4096
-4096
8192
0
4096
-4096
8192
0
4096
-4096
8192
0
4096
-4096
8192
0
4096
-4096
8192
0
4096
-4096
8192
0
4096
-4096
8192
0
4096
-4096
8192
0
4096
-4096
8192
0
4096
-4096
8192
0
4096
-4096
8192
0
4096
-4096
8192
0
4096
-4096
8192
0
4096
-4096
8192
0
4096
-4096
8192
0
4096
-4096
8192
0
4096
-4096
8192
0
4096
-4096
8192
0
4096
-4096
8192
0
4096
-4096
8192
0
4096
-4096
8192
0
4096
-4096
8192
0
4096
-4096
8192
0
4096
-4096
8192
0
4096
-4096
8192
0
4096
-4096
8192
0
4096
-4096
8192
0
4096
-4096
8192
0
4096
-4096
8192
0
4096
-4096
8192
0
4096
-4096
8192
0
4096
-4096
8192
0
4096
-4096
8192
0
4096
-4096
8192
0
4096
-4096
8192
0
4096
-4096
8192
0
4096
-4096
8192
0
4096
-4096
8192
0
4096
-4096
8192
0
4096
-4096
8192
0
4096
-4096
8192
0
4096
-4096
8192
0
4096
-4096
8192
0
4096
-4096
8192
0
4096
-4096
8192
0
4096
-4096
8192
0
4096
-4096
8192
0
4096
-4096
8192
0
4096
-4096
8192
0
4096
-4096
8192
0
4096
-4096
8192
0
4096
-4096
8192
0
4096
-4096
8192
0
4096
-4096
8192
0
4096
-4096
8192
0
4096
-4096
8192
0
4096
-4096
8192
0
4096
-4096
8192
0
4096
-4096
8192
0
4096
-4096
8192
0
4096
-4096
8192
0
4096
-4096
8192
0
4096
-4096
8192
0
4096
-4096
8192
0
4096
-4096
8192
0
4096
-4096
8192
0
4096
-4096
8192
0
4096
-4096
8192
0
4096
-4096
8192
0
4096
-4096
8192
0
4096
-4096
8192
0
4096
-4096
8192
0
4096
-4096
8192
0
4096
-4096
8192
0
4096
-4096
8192
0
4096
-4096
8192
0
4096
-4096
8192
0
4096
-4096
8192
0
4096
-4096
8192
0
4096
-4096
8192
0
4096
-4096
8192
0
4096
-4096
8192
0
4096
-4096
8192
0
4096
-4096
8192
0
4096
-4096
8192
0
4096
-4096
8192
0
4096
-4096
8192
0
4096
-4096
8192
0
4096
-4096
8192
0
4096
-4096
8192
0
4096
-4096
8192
0
4096
-4096
8192
0
4096
-4096
8192
0
4096
-4096
8192
0
4096
-4096
8192
0
4096
-4096
8192
0
4096
-4096
8192
0
4096
-4096
8192
0
4096
-4096
8192
0
4096
-4096
8192
0
4096
-4096
8192
0
4096
-4096
8192
0
4096
-4096
8192
0
4096
-4096
8192
0
4096
-4096
8192
0
4096
-4096
8192
0
4096
-4096
8192
0
4096
-4096
8192
0
4096
-4096
8192
0
4096
-4096
8192
0
4096
-4096
8192
0
4096
-4096
8192
0
4096
-4096
8192
0
4096
-4096
8192
0
4096
-4096
8192
0
4096
-4096
8192
0
4096
-4096
8192
0
4096
-4096
8192
0
4096
-4096
8192
0
4096
-4096
8192
0
4096
-4096
8192
0
4096
-4096
8192
0
4096
-4096
8192
0
4096
-4096
8192
0
4096
-4096
8192
0
4096
-4096
8192
0
4096
-4096
8192
0
4096
-4096
8192
0
4096
-4096
8192
0
4096
-4096
8192
0
4096
-4096
8192
0
4096
-4096
8192
0
4096
-4096
8192
0
4096
-4096
8192
0
4096
-4096
8192
0
4096
-4096
8192
0
4096
-4096
8192
0
4096
-4096
8192
0
4096
-4096
8192
0
4096
-4096
8192
0
4096
-4096
8192
0
4096
-4096
8192
0
4096
-4096
8192
0
4096
-4096
8192
0
4096
-4096
8192
0
4096
-4096
8192
0
4096
-4096
8192
0
4096
-4096
8192
0
4096
-4096
8192
0
4096
-4096
8192
0
4096
-4096
8192
0
4096
-4096
8192
0
4096
-4096
8192
0
4096
-4096
8192
0
4096
-4096
8192
0
4096
-4096
8192
0
4096
-4096
8192
0
4096
-4096
8192
0
4096
-4096
8192
0
4096
-4096
8192
0
4096
-4096
8192
0
4096
-4096
8192
0
4096
-4096
8192
0
4096
-4096
8192
0
4096
-4096
8192
0
4096
-4096
8192
0
4096
-4096
8192
0
4096
-4096
8192
0
4096
-4096
8192
0
4096
-4096
8192
0
4096
-4096
8192
0
4096
-4096
8192
0
4096
-4096
8192
0
4096
-4096
8192
0
4096
-4096
8192
0
4096
-4096
8192
0
4096
-4096
8192
0
4096
-4096
8192
0
4096
-4096
8192
0
4096
-4096
8192
0
4096
-4096
8192
0
4096
-4096
8192
0
4096
-4096
8192
0
4096
-4096
8192
0
4096
-4096
8192
0
4096
-4096
8192
0
4096
-4096
8192
0
4096
-4096
8192
0
4096
-4096
8192
0
4096
-4096
8192
0
4096
-4096
8192
0
4096
-4096
8192
0
4096
-4096
8192
0
4096
-4096
8192
0
4096
-4096
8192
0
4096
-4096
8192
0
4096
-4096
8192
0
4096
-4096
8192
0
4096
-4096
8192
0
4096
-4096
8192
0
4096
-4096
8192
0
4096
-4096
8192
0
4096
-4096
8192
0
4096
-4096
8192
0
4096
-4096
8192
0
4096
-4096
8192
0
4096
-4096
8192
0
4096
-4096
8192
0
4096
-4096
8192
0
4096
-4096
8192
0
4096
-4096
8192
0
4096
-4096
8192
0
4096
-4096
8192
0
4096
-4096
8192
0
4096
-4096
8192
0
4096
-4096
8192
0
4096
-4096
8192
0
4096
-4096
8192
0
4096
-4096
8192
0
4096
-4096
8192
0
4096
-4096
8192
0
4096
-4096
8192
0
4096
-4096
8192
0
4096
-4096
8192
0
4096
-4096
8192
0
4096
-4096
8192
0
4096
-4096
8192
0
4096
-4096
8192
0
4096
-4096
8192
0
4096
-4096
8192
0
4096
-4096
8192
0
4096
-4096
8192
0
4096
-4096
8192
0
4096
-4096
8192
0
4096
-4096
8192
0
4096
-4096
8192
0
4096
-4096
8192
0
4096
-4096
8192
0
4096
-4096
8192
0
4096
-4096
8192
0
4096
-4096
8192
0
4096
-4096
8192
0
4096
-4096
8192
0
4096
-4096
8192
0
4096
-4096
8192
0
4096
-4096
8192
0
4096
-4096
8192
0
4096
-4096
8192
0
4096
-4096
8192
0
4096
-4096
8192
0
4096
-4096
8192
0
4096
-4096
8192
0
4096
-4096
8192
0
4096
-4096
8192
0
4096
-4096
8192
0
4096
-4096
8192
0
4096
-4096
8192
0
4096
-4096
8192
0
4096
-4096
8192
0
4096
-4096
8192
0
4096
-4096
8192
0
4096
-4096
8192
0
4096
-4096
8192
0
4096
-4096
8192
0
4096
-4096
8192
0
4096
-4096
8192
0
4096
-4096
8192
0
4096
-4096
8192
0
4096
-4096
8192
0
4096
-4096
8192
0
4096
-4096
8192
0
4096
-4096
8192
0
4096
-4096
8192
0
4096
-4096
8192
0
4096
-4096
8192
0
4096
-4096
8192
0
4096
-4096
8192
0
4096
-4096
8192
0
4096
-4096
8192
0
4096
-4096
8192
0
4096
-4096
8192
0
4096
-4096
8192
0
4096
-4096
8192
0
4096
-4096
8192
0
4096
-4096
8192
0
4096
-4096
8192
0
4096
-4096
8192
0
4096
-4096
8192
0
4096
-4096
8192
0
4096
-4096
8192
0
4096
-4096
8192
0
4096
-4096
8192
0
4096
-4096
8192
0
4096
-4096
8192
0
4096
-4096
8192
0
4096
-4096
8192
0
4096
-4096
8192
0
4096
-4096
8192
0
4096
-4096
8192
0
4096
-4096
8192
0
4096
-4096
8192
0
4096
-4096
8192
0
4096
-4096
8192
0
4096
-4096
8192
0
4096
-4096
8192
0
4096
-4096
8192
0
4096
-4096
8192
0
4096
-4096
8192
0
4096
-4096
8192
0
4096
-4096
8192
0
4096
-4096
8192
0
4096
-4096
8192
0
4096
-4096
8192
0
4096
-4096
8192
0
4096
-4096
8192
0
4096
-4096
8192
0
4096
-4096
8192
0
4096
-4096
8192
0
4096
-4096
8192
0
4096
-4096
8192
0
4096
-4096
8192
0
4096
-4096
8192
0
4096
-4096
8192
0
4096
-4096
8192
0
4096
-4096
8192
0
4096
-4096
8192
0
4096
-4096
8192
0
4096
-4096
8192
0
4096
-4096
8192
0
4096
-4096
8192
0
4096
-4096
8192
0
4096
-4096
8192
0
4096
-4096
8192
0
4096
-4096
8192
0
4096
-4096
8192
0
4096
-4096
8192
0
4096
-4096
8192
0
4096
-4096
8192
0
4096
-4096
8192
0
4096
-4096
8192
0
4096
-4096
8192
0
4096
-4096
8192
0
4096
-4096
8192
0
4096
-4096
8192
0
4096
-4096
8192
0
4096
-4096
8192
0
4096
-4096
8192
0
4096
-4096
8192
0
4096
-4096
8192
0
4096
-4096
8192
0
4096
-4096
8192
0
4096
-4096
8192
0
4096
-4096
8192
0
4096
-4096
8192
0
4096
-4096
8192
0
4096
-4096
8192
0
4096
-4096
8192
0
4096
-4096
8192
0
4096
-4096
8192
0
4096
-4096
8192
0
4096
-4096
8192
0
4096
-4096
8192
0
4096
-4096
8192
0
4096
-4096
8192
0
4096
-4096
8192
0
4096
-4096
8192
0
4096
-4096
8192
0
4096
-4096
8192
0
4096
-4096
8192
0
4096
-4096
8192
0
4096
-4096
8192
0
4096
-4096
8192
0
4096
-4096
8192
0
4096
-4096
8192
0
4096
-4096
8192
0
4096
-4096
8192
0
4096
-4096
8192
0
4096
-4096
8192
0
4096
-4096
8192
0
4096
-4096
8192
0
4096
-4096
8192
0
4096
-4096
8192
0
4096
-4096
8192
0
4096
-4096
8192
0
4096
-4096
8192
0
4096
-4096
8192
0
4096
-4096
8192
0
4096
-4096
8192
0
4096
-4096
8192
0
4096
-4096
8192
0
4096
-4096
8192
0
4096
-4096
8192
0
4096
-4096
8192
0
4096
-4096
8192
0
4096
-4096
8192
0
4096
-4096
8192
0
4096
-4096
8192
0
4096
-4096
8192
0
4096
-4096
8192
0
4096
-4096
8192
0
4096
-4096
8192
0
4096
-4096
8192
0
4096
-4096
8192
0
4096
-4096
8192
0
4096
-4096
8192
0
4096
-4096
8192
0
4096
-4096
8192
0
4096
-4096
8192
0
4096
-4096
8192
0
4096
-4096
8192
0
4096
-4096
8192
0
4096
-4096
8192
0
4096
-4096
8192
0
4096
-4096
8192
0
4096
-4096
8192
0
4096
-4096
8192
0
4096
-4096
8192
0
4096
-4096
8192
0
4096
-4096
8192
0
4096
-4096
8192
0
4096
-4096
8192
0
4096
-4096
8192
0
4096
-4096
8192
0
4096
-4096
8192
0
4096
-4096
8192
0
4096
-4096
8192
0
4096
-4096
8192
0
4096
-4096
8192
0
4096
-4096
8192
0
4096
-4096
8192
0
4096
-4096
8192
0
4096
-4096
8192
0
4096
-4096
8192
0
4096
-4096
8192
0
4096
-4096
8192
0
4096
-4096
8192
0
4096
-4096
8192
0
4096
-4096
8192
0
4096
-4096
8192
0
4096
-4096
8192
0
4096
-4096
8192
0
4096
-4096
8192
0
4096
-4096
8192
0
4096
-4096
8192
0
4096
-4096
8192
0
4096
-4096
8192
0
4096
-4096
8192
0
4096
-4096
8192
0
4096
-4096
8192
0
4096
-4096
8192
0
4096
-4096
8192
0
4096
-4096
8192
0
4096
-4096
8192
0
4096
-4096
8192
0
4096
-4096
8192
0
4096
-4096
8192
0
4096
-4096
8192
0
4096
-4096
8192
0
4096
-4096
8192
0
4096
-4096
8192
0
4096
-4096
8192
0
4096
-4096
8192
0
4096
-4096
8192
0
4096
-4096
8192
0
4096
-4096
8192
0
4096
-4096
8192
0
4096
-4096
8192
0
4096
-4096
8192
0
4096
-4096
8192
0
4096
-4096
8192
0
4096
-4096
8192
0
4096
-4096
8192
0
4096
-4096
8192
0
4096
-4096
8192
0
4096
-4096
8192
0
4096
-4096
8192
0
4096
-4096
8192
0
4096
-4096
8192
0
4096
-4096
8192
0
4096
-4096
8192
0
4096
-4096
8192
0
4096
-4096
8192
0
4096
-4096
8192
0
4096
-4096
8192
0
4096
-4096
8192
0
4096
-4096
8192
0
4096
-4096
8192
0
4096
-4096
8192
0
4096
-4096
8192
0
4096
-4096
8192
0
4096
-4096
8192
0
4096
-4096
8192
0
4096
-4096
8192
0
4096
-4096
8192
0
4096
-4096
8192
0
4096
-4096
8192
0
4096
-4096
8192
0
4096
-4096
8192
0
4096
-4096
8192
0
4096
-4096
8192
0
4096
-4096
8192
0
4096
-4096
8192
0
4096
-4096
8192
0
4096
-4096
8192
0
4096
-4096
8192
0
4096
-4096
8192
0
4096
-4096
8192
0
4096
-4096
8192
0
4096
-4096
8192
0
4096
-4096
8192
0
4096
-4096
8192
0
4096
-4096
8192
0
4096
-4096
8192
0
4096
-4096
8192
0
4096
-4096
8192
0
4096
-4096
8192
0
4096
-4096
8192
0
4096
-4096
8192
0
4096
-4096
8192
0
4096
-4096
8192
0
4096
-4096
8192
0
4096
-4096
8192
0
4096
-4096
8192
0
4096
-4096
8192
0
4096
-4096
8192
0
4096
-4096
8192
0
4096
-4096
8192
0
4096
-4096
8192
0
4096
-4096
8192
0
4096
-4096
8192
0
4096
-4096
8192
0
4096
-4096
8192
0
4096
-4096
8192
0
4096
-4096
8192
0
4096
-4096
8192
0
4096
-4096
8192
0
4096
-4096
8192
0
4096
-4096
8192
0
4096
-4096
8192
0
4096
-4096
8192
0
4096
-4096
8192
0
4096
-4096
8192
0
4096
-4096
8192
0
4096
-4096
8192
0
4096
-4096
8192
0
4096
-4096
8192
0
4096
-4096
8192
0
4096
-4096
8192
0
4096
-4096
8192
0
4096
-4096
8192
0
4096
-4096
8192
0
4096
-4096
8192
0
4096
-4096
8192
0
4096
-4096
8192
0
4096
-4096
8192
0
4096
-4096
8192
0
4096
-4096
8192
0
4096
-4096
8192
0
4096
-4096
8192
0
4096
-4096
8192
0
4096
-4096
8192
0
4096
-4096
8192
0
4096
-4096
8192
0
4096
-4096
8192
0
4096
-4096
8192
0
4096
-4096
8192
0
4096
-4096
8192
0
4096
-4096
8192
0
4096
-4096
8192
0
4096
-4096
8192
0
4096
-4096
8192
0
4096
-4096
8192
0
4096
-4096
8192
0
4096
-4096
8192
0
4096
-4096
8192
0
4096
-4096
8192
0
4096
-4096
8192
0
4096
-4096
8192
0
4096
-4096
8192
0
4096
-4096
8192
0
4096
-4096
8192
0
4096
-4096
8192
0
4096
-4096
8192
0
4096
-4096
8192
0
4096
-4096
8192
0
4096
-4096
8192
0
4096
-4096
8192
0
4096
-4096
8192
0
4096
-4096
8192
0
4096
-4096
8192
0
4096
-4096
8192
0
4096
-4096
8192
0
4096
-4096
8192
0
4096
-4096
8192
0
4096
-4096
8192
0
4096
-4096
8192
0
4096
-4096
8192
0
4096
-4096
8192
0
4096
-4096
8192
0
4096
-4096
8192
0
4096
-4096
8192
0
4096
-4096
8192
0
4096
-4096
8192
0
4096
-4096
8192
0
4096
-4096
8192
0
4096
-4096
8192
0
4096
-4096
8192
0
4096
-4096
8192
0
4096
-4096
8192
0
4096
-4096
8192
0
4096
-4096
8192
0
4096
-4096
8192
0
4096
-4096
8192
0
4096
-4096
8192
0
4096
-4096
8192
0
4096
-4096
8192
0
4096
-4096
8192
0
4096
-4096
8192
0
4096
-4096
8192
0
4096
-4096
8192
0
4096
-4096
8192
0
4096
-4096
8192
0
4096
-4096
8192
0
4096
-4096
8192
0
4096
-4096
8192
0
4096
-4096
8192
0
4096
-4096
8192
0
4096
-4096
8192
0
4096
-4096
8192
0
4096
-4096
8192
0
4096
-4096
8192
0
4096
-4096
8192
0
4096
-4096
8192
0
4096
-4096
8192
0
4096
-4096
8192
0
4096
-4096
8192
0
4096
-4096
8192
0
4096
-4096
8192
0
4096
-4096
8192
0
4096
-4096
8192
0
4096
-4096
8192
0
4096
-4096
8192
0
4096
-4096
8192
0
4096
-4096
8192
0
4096
-4096
8192
0
4096
-4096
8192
0
4096
-4096
8192
0
4096
-4096
8192
0
4096
-4096
8192
0
4096
-4096
8192
0
4096
-4096
8192
0
4096
-4096
8192
0
4096
-4096
8192
0
4096
-4096
8192
0
4096
-4096
8192
0
4096
-4096
8192
0
4096
-4096
8192
0
4096
-4096
8192
0
4096
-4096
8192
0
4096
-4096
8192
0
4096
-4096
8192
0
4096
-4096
8192
0
4096
-4096
8192
0
4096
-4096
8192
0
4096
-4096
8192
0
4096
-4096
8192
0
4096
-4096
8192
0
4096
-4096
8192
0
4096
-4096
8192
0
4096
-4096
8192
0
4096
-4096
8192
0
4096
-4096
8192
0
4096
-4096
8192
0
4096
-4096
8192
0
4096
-4096
8192
0
4096
-4096
8192
0
4096
-4096
8192
0
4096
-4096
8192
0
4096
-4096
8192
0
4096
-4096
8192
0
4096
-4096
8192
0
4096
-4096
8192
0
4096
-4096
8192
0
4096
-4096
8192
0
4096
-4096
8192
0
4096
-4096
8192
0
4096
-4096
8192
0
4096
-4096
8192
0
4096
-4096
8192
0
4096
-4096
8192
0
4096
-4096
8192
0
4096
-4096
8192
0
4096
-4096
8192
0
4096
-4096
8192
0
4096
-4096
8192
0
4096
-4096
8192
0
4096
-4096
8192
0
4096
-4096
8192
0
4096
-4096
8192
0
4096
-4096
8192
0
4096
-4096
8192
0
4096
-4096
8192
0
4096
-4096
8192
0
4096
-4096
8192
0
4096
-4096
8192
0
4096
-4096
8192
0
4096
-4096
8192
0
4096
-4096
8192
0
4096
-4096
8192
0
4096
-4096
8192
0
4096
-4096
8192
0
4096
-4096
8192
0
4096
-4096
8192
0
4096
-4096
8192
0
4096
-4096
8192
0
4096
-4096
8192
0
4096
-4096
8192
0
4096
-4096
8192
0
4096
-4096
8192
0
4096
-4096
8192
0
4096
-4096
8192
0
4096
-4096
8192
0
4096
-4096
8192
0
4096
-4096
8192
0
4096
-4096
8192
0
4096
-4096
8192
0
4096
-4096
8192
0
4096
-4096
8192
0
4096
-4096
8192
0
4096
-4096
8192
0
4096
-4096
8192
0
4096
-4096
8192
0
4096
-4096
8192
0
4096
-4096
8192
0
4096
-4096
8192
0
4096
-4096
8192
0
4096
-4096
8192
0
4096
-4096
8192
0
4096
-4096
8192
0
4096
-4096
8192
0
4096
-4096
8192
0
4096
-4096
8192
0
4096
-4096
8192
0
4096
-4096
8192
0
4096
-4096
8192
0
4096
-4096
8192
0
4096
-4096
8192
0
4096
-4096
8192
0
4096
-4096
8192
0
4096
-4096
8192
0
4096
-4096
8192
0
4096
-4096
8192
0
4096
-4096
8192
0
4096
-4096
8192
0
4096
-4096
8192
0
4096
-4096
8192
0
4096
-4096
8192
0
4096
-4096
8192
0
4096
-4096
8192
0
4096
-4096
8192
0
4096
-4096
8192
0
4096
-4096
8192
0
4096
-4096
8192
0
4096
-4096
8192
0
4096
-4096
8192
0
4096
-4096
8192
0
4096
-4096
8192
0
4096
-4096
8192
0
4096
-4096
8192
0
4096
-4096
8192
0
4096
-4096
8192
0
4096
-4096
8192
0
4096
-4096
8192
0
4096
-4096
8192
0
4096
-4096
8192
0
4096
-4096
8192
0
4096
-4096
8192
0
4096
-4096
8192
0
4096
-4096
8192
0
4096
-4096
8192
0
4096
-4096
8192
0
4096
-4096
8192
0
4096
-4096
8192
0
4096
-4096
8192
0
4096
-4096
8192
0
4096
-4096
8192
0
4096
-4096
8192
0
4096
-4096
8192
0
4096
-4096
8192
0
4096
-4096
8192
0
4096
-4096
8192
0
4096
-4096
8192
0
4096
-4096
8192
0
4096
-4096
8192
0
4096
-4096
8192
0
4096
-4096
8192
0
4096
-4096
8192
0
4096
-4096
8192
0
4096
-4096
8192
0
4096
-4096
8192
0
4096
-4096
8192
0
4096
-4096
8192
0
4096
-4096
8192
0
4096
-4096
8192
0
4096
-4096
8192
0
4096
-4096
8192
0
4096
-4096
8192
0
4096
-4096
8192
0
4096
-4096
8192
0
4096
-4096
8192
0
4096
-4096
8192
0
4096
-4096
8192
0
4096
-4096
8192
0
4096
-4096
8192
0
4096
-4096
8192
0
4096
-4096
8192
0
4096
-4096
8192
0
4096
-4096
8192
0
4096
-4096
8192
0
4096
-4096
8192
0
4096
-4096
8192
0
4096
-4096
8192
0
4096
-4096
8192
0
4096
-4096
8192
0
4096
-4096
8192
0
4096
-4096
8192
0
4096
-4096
8192
0
4096
-4096
8192
0
4096
-4096
8192
0
4096
-4096
8192
0
4096
-4096
8192
0
4096
-4096
8192
0
4096
-4096
8192
0
4096
-4096
8192
0
4096
-4096
8192
0
4096
-4096
8192
0
4096
-4096
8192
0
4096
-4096
8192
0
4096
-4096
8192
0
4096
-4096
8192
0
4096
-4096
8192
0
4096
-4096
8192
0
4096
-4096
8192
0
4096
-4096
8192
0
4096
-4096
8192
0
4096
-4096
8192
0
4096
-4096
8192
0
4096
-4096
8192
0
4096
-4096
8192
0
4096
-4096
8192
0
4096
-4096
8192
0
4096
-4096
8192
0
4096
-4096
8192
0
4096
-4096
8192
0
4096
-4096
8192
0
4096
-4096
8192
0
4096
-4096
8192
0
4096
-4096
8192
0
4096
-4096
8192
0
4096
-4096
8192
0
4096
-4096
8192
0
4096
-4096
8192
0
4096
-4096
8192
0
4096
-4096
8192
0
4096
-4096
8192
0
4096
-4096
8192
0
4096
-4096
8192
0
4096
-4096
8192
0
4096
-4096
8192
0
4096
-4096
8192
0
4096
-4096
8192
0
4096
-4096
8192
0
4096
-4096
8192
0
4096
-4096
8192
0
4096
-4096
8192
0
4096
-4096
8192
0
4096
-4096
8192
0
4096
-4096
8192
0
4096
-4096
8192
0
4096
-4096
8192
0
4096
-4096
8192
0
4096
-4096
8192
0
4096
-4096
8192
0
4096
-4096
8192
0
4096
-4096
8192
0
4096
-4096
8192
0
4096
-4096
8192
0
4096
-4096
8192
0
4096
-4096
8192
0
4096
-4096
8192
0
4096
-4096
8192
0
4096
-4096
8192
0
4096
-4096
8192
0
4096
-4096
8192
0
4096
-4096
8192
0
4096
-4096
8192
0
4096
-4096
8192
0
4096
-4096
8192
0
4096
-4096
8192
0
4096
-4096
8192
0
4096
-4096
8192
0
4096
-4096
8192
0
4096
-4096
8192
0
4096
-4096
8192
0
4096
-4096
8192
0
4096
-4096
8192
0
4096
-4096
8192
0
4096
-4096
8192
0
4096
-4096
8192
0
4096
-4096
8192
0
4096
-4096
8192
0
4096
-4096
8192
0
4096
-4096
8192
0
4096
-4096
8192
0
4096
-4096
8192
0
4096
-4096
8192
0
4096
-4096
8192
0
4096
-4096
8192
0
4096
-4096
8192
0
4096
-4096
8192
0
4096
-4096
8192
0
4096
-4096
8192
0
4096
-4096
8192
0
4096
-4096
8192
0
4096
-4096
8192
0
4096
-4096
8192
0
4096
-4096
8192
0
4096
-4096
8192
0
4096
-4096
8192
0
4096
-4096
8192
0
4096
-4096
8192
0
4096
-4096
8192
0
4096
-4096
8192
0
4096
-4096
8192
0
4096
-4096
8192
0
4096
-4096
8192
0
4096
-4096
8192
0
4096
-4096
8192
0
4096
-4096
8192
0
4096
-4096
8192
0
4096
-4096
8192
0
4096
-4096
8192
0
4096
-4096
8192
0
4096
-4096
8192
0
4096
-4096
8192
0
4096
-4096
8192
0
4096
-4096
8192
0
4096
-4096
8192
0
4096
-4096
8192
0
4096
-4096
8192
0
4096
-4096
8192
0
4096
-4096
8192
0
4096
-4096
8192
0
4096
-4096
8192
0
4096
-4096
8192
0
4096
-4096
8192
0
4096
-4096
8192
0
4096
-4096
8192
0
4096
-4096
8192
0
4096
-4096
8192
0
4096
-4096
8192
0
4096
-4096
8192
0
4096
-4096
8192
0
4096
-4096
8192
0
4096
-4096
8192
0
4096
-4096
8192
0
4096
-4096
8192
0
4096
-4096
8192
0
4096
-4096
8192
0
4096
-4096
8192
0
4096
-4096
8192
0
4096
-4096
8192
0
4096
-4096
8192
0
4096
-4096
8192
0
4096
-4096
8192
0
4096
-4096
8192
0
4096
-4096
8192
0
4096
-4096
8192
0
4096
-4096
8192
0
4096
-4096
8192
0
4096
-4096
8192
0
4096
-4096
8192
0
4096
-4096
8192
0
4096
-4096
8192
0
4096
-4096
8192
0
4096
-4096
8192
0
4096
-4096
8192
0
4096
-4096
8192
0
4096
-4096
8192
0
4096
-4096
8192
0
4096
-4096
8192
0
4096
-4096
8192
0
4096
-4096
8192
0
4096
-4096
8192
0
4096
-4096
8192
0
4096
-4096
8192
0
4096
-4096
8192
0
4096
-4096
8192
0
4096
-4096
8192
0
4096
-4096
8192
0
4096
-4096
8192
0
4096
-4096
8192
0
4096
-4096
8192
0
4096
-4096
8192
0
4096
-4096
8192
0
4096
-4096
8192
0
4096
-4096
8192
0
4096
-4096
8192
0
4096
-4096
8192
0
4096
-4096
8192
0
4096
-4096
8192
0
4096
-4096
8192
0
4096
-4096
8192
0
4096
-4096
8192
0
4096
-4096
8192
0
4096
-4096
8192
0
4096
-4096
8192
0
4096
-4096
8192
0
4096
-4096
8192
0
4096
-4096
8192
0
4096
-4096
8192
0
4096
-4096
8192
0
4096
-4096
8192
0
4096
-4096
8192
0
4096
-4096
8192
0
4096
-4096
8192
0
4096
-4096
8192
0
4096
-4096
8192
0
4096
-4096
8192
0
4096
-4096
8192
0
4096
-4096
8192
0
4096
-4096
8192
0
4096
-4096
8192
0
4096
-4096
8192
0
4096
-4096
8192
0
4096
-4096
8192
0
4096
-4096
8192
0
4096
-4096
8192
0
4096
-4096
8192
0
4096
-4096
8192
0
4096
-4096
8192
0
4096
-4096
8192
0
4096
-4096
8192
0
4096
-4096
8192
0
4096
-4096
8192
0
4096
-4096
8192
0
4096
-4096
8192
0
4096
-4096
8192
0
4096
-4096
8192
0
4096
-4096
8192
0
4096
-4096
8192
0
4096
-4096
8192
0
4096
-4096
8192
0
4096
-4096
8192
0
4096
-4096
8192
0
4096
-4096
8192
0
4096
-4096
8192
0
4096
-4096
8192
0
4096
-4096
8192
0
4096
-4096
8192
0
4096
-4096
8192
0
4096
-4096
8192
0
4096
-4096
8192
0
4096
-4096
8192
0
4096
-4096
8192
0
4096
-4096
8192
0
4096
-4096
8192
0
4096
-4096
8192
0
4096
-4096
8192
0
4096
-4096
8192
0
4096
-4096
8192
0
4096
-4096
8192
0
4096
-4096
8192
0
4096
-4096
8192
0
4096
-4096
8192
0
4096
-4096
8192
0
4096
-4096
8192
0
4096
-4096
8192
0
4096
-4096
8192
0
4096
-4096
8192
0
4096
-4096
8192
0
4096
-4096
8192
0
4096
-4096
8192
0
4096
-4096
8192
0
4096
-4096
8192
0
4096
-4096
8192
0
4096
-4096
8192
0
4096
-4096
8192
0
4096
-4096
8192
0
4096
-4096
8192
0
4096
-4096
8192
0
4096
-4096
8192
0
4096
-4096
8192
0
4096
-4096
8192
0
4096
-4096
8192
0
4096
-4096
8192
0
4096
-4096
8192
0
4096
-4096
8192
0
4096
-4096
8192
0
4096
-4096
8192
0
4096
-4096
8192
0
4096
-4096
8192
0
4096
-4096
8192
0
4096
-4096
8192
0
4096
-4096
8192
0
4096
-4096
8192
0
4096
-4096
8192
0
4096
-4096
8192
0
4096
-4096
8192
0
4096
-4096
8192
0
4096
-4096
8192
0
4096
-4096
8192
0
4096
-4096
8192
0
4096
-4096
8192
0
4096
-4096
8192
0
4096
-4096
8192
0
4096
-4096
8192
0
4096
-4096
8192
0
4096
-4096
8192
0
4096
-4096
8192
0
4096
-4096
8192
0
4096
-4096
8192
0
4096
-4096
8192
0
4096
-4096
8192
0
4096
-4096
8192
0
4096
-4096
8192
0
4096
-4096
8192
0
4096
-4096
8192
0
4096
-4096
8192
0
4096
-4096
8192
0
4096
-4096
8192
0
4096
-4096
8192
0
4096
-4096
8192
0
4096
-4096
8192
0
4096
-4096
8192
0
4096
-4096
8192
0
4096
-4096
8192
0
4096
-4096
8192
0
4096
-4096
8192
0
4096
-4096
8192
0
4096
-4096
8192
0
4096
-4096
8192
0
4096
-4096
8192
0
4096
-4096
8192
0
4096
-4096
8192
0
4096
-4096
8192
0
4096
-4096
8192
0
4096
-4096
8192
0
4096
-4096
8192
0
4096
-4096
8192
0
4096
-4096
8192
0
4096
-4096
8192
0
4096
-4096
8192
0
4096
-4096
8192
0
4096
-4096
8192
0
4096
-4096
8192
0
4096
-4096
8192
0
4096
-4096
8192
0
4096
-4096
8192
0
4096
-4096
8192
0
4096
-4096
8192
0
4096
-4096
8192
0
4096
-4096
8192
0
4096
-4096
8192
0
4096
-4096
8192
0
4096
-4096
8192
0
4096
-4096
8192
0
4096
-4096
8192
0
4096
-4096
8192
0
4096
-4096
8192
0
4096
-4096
8192
0
4096
-4096
8192
0
4096
-4096
8192
0
4096
-4096
8192
0
4096
-4096
8192
0
4096
-4096
8192
0
4096
-4096
8192
0
4096
-4096
8192
0
4096
-4096
8192
0
4096
-4096
8192
0
4096
-4096
8192
0
4096
-4096
8192
0
4096
-4096
8192
0
4096
-4096
8192
0
4096
-4096
8192
0
4096
-4096
8192
0
4096
-4096
8192
0
4096
-4096
8192
0
4096
-4096
8192
0
4096
-4096
8192
0
4096
-4096
8192
0
4096
-4096
8192
0
4096
-4096
8192
0
4096
-4096
8192
0
4096
-4096
8192
0
4096
-4096
8192
0
4096
-4096
8192
0
4096
-4096
8192
0
4096
-4096
8192
0
4096
-4096
8192
0
4096
-4096
8192
0
4096
-4096
8192
0
4096
-4096
8192
0
4096
-4096
8192
0
4096
-4096
8192
0
4096
-4096
8192
0
4096
-4096
8192
0
4096
-4096
8192
0
4096
-4096
8192
0
4096
-4096
8192
0
4096
-4096
8192
0
4096
-4096
8192
0
4096
-4096
8192
0
4096
-4096
8192
0
4096
-4096
8192
0
4096
-4096
8192
0
4096
-4096
8192
0
4096
-4096
8192
0
4096
-4096
8192
0
4096
-4096
8192
0
4096
-4096
8192
0
4096
-4096
8192
0
4096
-4096
8192
0
4096
-4096
8192
0
4096
-4096
8192
0
4096
-4096
8192
0
4096
-4096
8192
0
4096
-4096
8192
0
4096
-4096
8192
0
4096
-4096
8192
0
4096
-4096
8192
0
4096
-4096
8192
0
4096
-4096
8192
0
4096
-4096
8192
0
4096
-4096
8192
0
4096
-4096
8192
0
4096
-4096
8192
0
4096
-4096
8192
0
4096
-4096
8192
0
4096
-4096
8192
0
4096
-4096
8192
0
4096
-4096
8192
0
4096
-4096
8192
0
4096
-4096
8192
0
4096
-4096
8192
0
4096
-4096
8192
0
4096
-4096
8192
0
4096
-4096
8192
0
4096
-4096
8192
0
4096
-4096
8192
0
4096
-4096
8192
0
4096
-4096
8192
0
4096
-4096
8192
0
4096
-4096
8192
0
4096
-4096
8192
0
4096
-4096
8192
0
4096
-4096
8192
0
4096
-4096
8192
0
4096
-4096
8192
0
4096
-4096
8192
0
4096
-4096
8192
0
4096
-4096
8192
0
4096
-4096
8192
0
4096
-4096
8192
0
4096
-4096
8192
0
4096
-4096
8192
0
4096
-4096
8192
0
4096
-4096
8192
0
4096
-4096
8192
0
4096
-4096
8192
0
4096
-4096
8192
0
4096
-4096
8192
0
4096
-4096
8192
0
4096
-4096
8192
0
4096
-4096
8192
0
4096
-4096
8192
0
4096
-4096
8192
0
4096
-4096
8192
0
4096
-4096
8192
0
4096
-4096
8192
0
4096
-4096
8192
0
4096
-4096
8192
0
4096
-4096
8192
0
4096
-4096
8192
0
4096
-4096
8192
0
4096
-4096
8192
0
4096
-4096
8192
0
4096
-4096
8192
0
4096
-4096
8192
0
4096
-4096
8192
0
4096
-4096
8192
0
4096
-4096
8192
0
4096
-4096
8192
0
4096
-4096
8192
0
4096
-4096
8192
0
4096
-4096
8192
0
4096
-4096
8192
0
4096
-4096
8192
0
4096
-4096
8192
0
4096
-4096
8192
0
4096
-4096
8192
0
4096
-4096
8192
0
4096
-4096
8192
0
4096
-4096
8192
0
4096
-4096
8192
0
4096
-4096
8192
0
4096
-4096
8192
0
4096
-4096
8192
0
4096
-4096
8192
0
4096
-4096
8192
0
4096
-4096
8192
0
4096
-4096
8192
0
4096
-4096
8192
0
4096
-4096
8192
0
4096
-4096
8192
0
4096
-4096
8192
0
4096
-4096
8192
0
4096
-4096
8192
0
4096
-4096
8192
0
4096
-4096
8192
0
4096
-4096
8192
0
4096
-4096
8192
0
4096
-4096
8192
0
4096
-4096
8192
0
4096
-4096
8192
0
4096
-4096
8192
0
4096
-4096
8192
0
4096
-4096
8192
0
4096
-4096
8192
0
4096
-4096
8192
0
4096
-4096
8192
0
4096
-4096
8192
0
4096
-4096
8192
0
4096
-4096
8192
0
4096
-4096
8192
0
4096
-4096
8192
0
4096
-4096
8192
0
4096
-4096
8192
0
4096
-4096
8192
0
4096
-4096
8192
0
4096
-4096
8192
0
4096
-4096
8192
0
4096
-4096
8192
0
4096
-4096
8192
0
4096
-4096
8192
0
4096
-4096
8192
0
4096
-4096
8192
0
4096
-4096
8192
0
4096
-4096
8192
0
4096
-4096
8192
0
4096
-4096
8192
0
4096
-4096
8192
0
4096
-4096
8192
0
4096
-4096
8192
0
4096
-4096
8192
0
4096
-4096
8192
0
4096
-4096
8192
0
4096
-4096
8192
0
4096
-4096
8192
0
4096
-4096
8192
0
4096
-4096
8192
0
4096
-4096
8192
0
4096
-4096
8192
0
4096
-4096
8192
0
4096
-4096
8192
0
4096
-4096
8192
0
4096
-4096
8192
0
4096
-4096
8192
0
4096
-4096
8192
0
4096
-4096
8192
0
4096
-4096
8192
0
4096
-4096
8192
0
4096
-4096
8192
0
4096
-4096
8192
0
4096
-4096
8192
0
4096
-4096
8192
0
4096
-4096
8192
0
4096
-4096
8192
0
4096
-4096
8192
0
4096
-4096
8192
0
4096
-4096
8192
0
4096
-4096
8192
0
4096
-4096
8192
0
4096
-4096
8192
0
4096
-4096
8192
0
4096
-4096
8192
0
4096
-4096
8192
0
4096
-4096
8192
0
4096
-4096
8192
0
4096
-4096
8192
0
4096
-4096
8192
0
4096
-4096
8192
0
4096
-4096
8192
0
4096
-4096
8192
0
4096
-4096
8192
0
4096
-4096
8192
0
4096
-4096
8192
0
4096
-4096
8192
0
4096
-4096
8192
0
4096
-4096
8192
0
4096
-4096
8192
0
4096
-4096
8192
0
4096
-4096
8192
0
4096
-4096
8192
0
4096
-4096
8192
0
4096
-4096
8192
0
4096
-4096
8192
0
4096
-4096
8192
0
4096
-4096
8192
0
4096
-4096
8192
0
4096
-4096
8192
0
4096
-4096
8192
0
4096
-4096
8192
0
4096
-4096
8192
0
4096
-4096
8192
0
4096
-4096
8192
0
4096
-4096
8192
0
4096
-4096
8192
0
4096
-4096
8192
0
4096
-4096
8192
0
4096
-4096
8192
0
4096
-4096
8192
0
4096
-4096
8192
0
4096
-4096
8192
0
4096
-4096
8192
0
4096
-4096
8192
0
4096
-4096
8192
0
4096
-4096
8192
0
4096
-4096
8192
0
4096
-4096
8192
0
4096
-4096
8192
0
4096
-4096
8192
0
4096
-4096
8192
0
4096
-4096
8192
0
4096
-4096
8192
0
4096
-4096
8192
0
4096
-4096
8192
0
4096
-4096
8192
0
4096
-4096
8192
0
4096
-4096
8192
0
4096
-4096
8192
0
4096
-4096
8192
0
4096
-4096
8192
0
4096
-4096
8192
0
4096
-4096
8192
0
4096
-4096
8192
0
4096
-4096
8192
0
4096
-4096
8192
0
4096
-4096
8192
0
4096
-4096
8192
0
4096
-4096
8192
0
4096
-4096
8192
0
4096
-4096
8192
0
4096
-4096
8192
0
4096
-4096
8192
0
4096
-4096
8192
0
4096
-4096
8192
0
4096
-4096
8192
0
4096
-4096
8192
0
4096
-4096
8192
0
4096
-4096
8192
0
4096
-4096
8192
0
4096
-4096
8192
0
4096
-4096
8192
0
4096
-4096
8192
0
4096
-4096
8192
0
4096
-4096
8192
0
4096
-4096
8192
0
4096
-4096
8192
0
4096
-4096
8192
0
4096
-4096
8192
0
4096
-4096
8192
0
4096
-4096
8192
0
4096
-4096
8192
0
4096
-4096
8192
0
4096
-4096
8192
0
4096
-4096
8192
0
4096
-4096
8192
0
4096
-4096
8192
0
4096
-4096
8192
0
4096
-4096
8192
0
4096
-4096
8192
0
4096
-4096
8192
0
4096
-4096
8192
0
4096
-4096
8192
0
4096
-4096
8192
0
4096
-4096
8192
0
4096
-4096
8192
0
4096
-4096
8192
0
4096
-4096
8192
0
4096
-4096
8192
0
4096
-4096
8192
0
4096
-4096
8192
0
4096
-4096
8192
0
4096
-4096
8192
0
4096
-4096
8192
0
4096
-4096
8192
0
4096
-4096
8192
0
4096
-4096
8192
0
4096
-4096
8192
0
4096
-4096
8192
0
4096
-4096
8192
0
4096
-4096
8192
0
4096
-4096
8192
0
4096
-4096
8192
0
4096
-4096
8192
0
4096
-4096
8192
0
4096
-4096
8192
0
4096
-4096
8192
0
4096
-4096
8192
0
4096
-4096
8192
0
4096
-4096
8192
0
4096
-4096
8192
0
4096
-4096
8192
0
4096
-4096
8192
0
4096
-4096
8192
0
4096
-4096
8192
0
4096
-4096
8192
0
4096
-4096
8192
0
4096
-4096
8192
0
4096
-4096
8192
0
4096
-4096
8192
0
4096
-4096
8192
0
4096
-4096
8192
0
4096
-4096
8192
0
4096
-4096
8192
0
4096
-4096
8192
0
4096
-4096
8192
0
4096
-4096
8192
0
4096
-4096
8192
0
4096
-4096
8192
0
4096
-4096
8192
0
4096
-4096
8192
0
4096
-4096
8192
0
4096
-4096
8192
0
4096
-4096
8192
0
4096
-4096
8192
0
4096
-4096
8192
0
4096
-4096
8192
0
4096
-4096
8192
0
4096
-4096
8192
0
4096
-4096
8192
0
4096
-4096
8192
0
4096
-4096
8192
0
4096
-4096
8192
0
4096
-4096
8192
0
4096
-4096
8192
0
4096
-4096
8192
0
4096
-4096
8192
0
4096
-4096
8192
0
4096
-4096
8192
0
4096
-4096
8192
0
4096
-4096
8192
0
4096
-4096
8192
0
4096
-4096
8192
0
4096
-4096
8192
0
4096
-4096
8192
0
4096
-4096
8192
0
4096
-4096
8192
0
4096
-4096
8192
0
4096
-4096
8192
0
4096
-4096
8192
0
4096
-4096
8192
0
4096
-4096
8192
0
4096
-4096
8192
0
4096
-4096
8192
0
4096
-4096
8192
0
4096
-4096
8192
0
4096
-4096
8192
0
4096
-4096
8192
0
4096
-4096
8192
0
4096
-4096
8192
0
4096
-4096
8192
0
4096
-4096
8192
0
4096
-4096
8192
0
4096
-4096
8192
0
4096
-4096
8192
0
4096
-4096
8192
0
4096
-4096
8192
0
4096
-4096
8192
0
4096
-4096
8192
0
4096
-4096
8192
0
4096
-4096
8192
0
4096
-4096
8192
0
4096
-4096
8192
0
4096
-4096
8192
0
4096
-4096
8192
0
4096
-4096
8192
0
4096
-4096
8192
0
4096
-4096
8192
0
4096
-4096
8192
0
4096
-4096
8192
0
4096
-4096
8192
0
4096
-4096
8192
0
4096
-4096
8192
0
4096
-4096
8192
0
4096
-4096
8192
0
4096
-4096
8192
0
4096
-4096
8192
0
4096
-4096
8192
0
4096
-4096
8192
0
4096
-4096
8192
0
4096
-4096
8192
0
4096
-4096
8192
0
4096
-4096
8192
0
4096
-4096
8192
0
4096
-4096
8192
0
4096
-4096
8192
0
4096
-4096
8192
0
4096
-4096
8192
0
4096
-4096
8192
0
4096
-4096
8192
0
4096
-4096
8192
0
4096
-4096
8192
0
4096
-4096
8192
0
4096
-4096
8192
0
4096
-4096
8192
0
4096
-4096
8192
0
4096
-4096
8192
0
4096
-4096
8192
0
4096
-4096
8192
0
4096
-4096
8192
0
4096
-4096
8192
0
4096
-4096
8192
0
4096
-4096
8192
0
4096
-4096
8192
0
4096
-4096
8192
0
4096
-4096
8192
0
4096
-4096
8192
0
4096
-4096
8192
0
4096
-4096
8192
0
4096
-4096
8192
0
4096
-4096
8192
0
4096
-4096
8192
0
4096
-4096
8192
0
4096
-4096
8192
0
4096
-4096
8192
0
4096
-4096
8192
0
4096
-4096
8192
0
4096
-4096
8192
0
4096
-4096
8192
0
4096
-4096
8192
0
4096
-4096
8192
0
4096
-4096
8192
0
4096
-4096
8192
0
4096
-4096
8192
0
4096
-4096
8192
0
4096
-4096
8192
0
4096
-4096
8192
0
4096
-4096
8192
0
4096
-4096
8192
0
4096
-4096
8192
0
4096
-4096
8192
0
4096
-4096
8192
0
4096
-4096
8192
0
4096
-4096
8192
0
4096
-4096
8192
0
4096
-4096
8192
0
4096
-4096
8192
0
4096
-4096
8192
0
4096
-4096
8192
0
4096
-4096
8192
0
4096
-4096
8192
0
4096
-4096
8192
0
4096
-4096
8192
0
4096
-4096
8192
0
4096
-4096
8192
0
4096
-4096
8192
0
4096
-4096
8192
0
4096
-4096
8192
0
4096
-4096
8192
0
4096
-4096
8192
0
4096
-4096
8192
0
4096
-4096
8192
0
4096
-4096
8192
0
4096
-4096
8192
0
4096
-4096
8192
0
4096
-4096
8192
0
4096
-4096
8192
0
4096
-4096
8192
0
4096
-4096
8192
0
4096
-4096
8192
0
4096
-4096
8192
0
4096
-4096
8192
0
4096
-4096
8192
0
4096
-4096
8192
0
4096
-4096
8192
0
4096
-4096
8192
0
4096
-4096
8192
0
4096
-4096
8192
0
4096
-4096
8192
0
4096
-4096
8192
0
4096
-4096
8192
0
4096
-4096
8192
0
4096
-4096
8192
0
4096
-4096
8192
0
4096
-4096
8192
0
4096
-4096
8192
0
4096
-4096
8192
0
4096
-4096
8192
0
4096
-4096
8192
0
4096
-4096
8192
0
4096
-4096
8192
0
4096
-4096
8192
0
4096
-4096
8192
0
4096
-4096
8192
0
4096
-4096
8192
0
4096
-4096
8192
0
4096
-4096
8192
0
4096
-4096
8192
0
4096
-4096
8192
0
4096
-4096
8192
0
4096
-4096
8192
0
4096
-4096
8192
0
4096
-4096
8192
0
4096
-4096
8192
0
4096
-4096
8192
0
4096
-4096
8192
0
4096
-4096
8192
0
4096
-4096
8192
0
4096
-4096
8192
0
4096
-4096
8192
0
4096
-4096
8192
0
4096
-4096
8192
0
4096
-4096
8192
0
4096
-4096
8192
0
4096
-4096
8192
0
4096
-4096
8192
0
4096
-4096
8192
0
4096
-4096
8192
0
4096
-4096
8192
0
4096
-4096
8192
0
4096
-4096
8192
0
4096
-4096
8192
0
4096
-4096
8192
0
4096
-4096
8192
0
4096
-4096
8192
0
4096
-4096
8192
0
4096
-4096
8192
0
4096
-4096
8192
0
4096
-4096
8192
0
4096
-4096
8192
0
4096
-4096
8192
0
4096
-4096
8192
0
4096
-4096
8192
0
4096
-4096
8192
0
4096
-4096
8192
0
4096
-4096
8192
0
4096
-4096
8192
0
4096
-4096
8192
0
4096
-4096
8192
0
4096
-4096
8192
0
4096
-4096
8192
0
4096
-4096
8192
0
4096
-4096
8192
0
4096
-4096
8192
0
4096
-4096
8192
0
4096
-4096
8192
0
4096
-4096
8192
0
4096
-4096
8192
0
4096
-4096
8192
0
4096
-4096
8192
0
4096
-4096
8192
0
4096
-4096
8192
0
4096
-4096
8192
0
4096
-4096
8192
0
4096
-4096
8192
0
4096
-4096
8192
0
4096
-4096
8192
0
4096
-4096
8192
0
4096
-4096
8192
0
4096
-4096
8192
0
4096
-4096
8192
0
4096
-4096
8192
0
4096
-4096
8192
0
4096
-4096
8192
0
4096
-4096
8192
0
4096
-4096
8192
0
4096
-4096
8192
0
4096
-4096
8192
0
4096
-4096
8192
0
4096
-4096
8192
0
4096
-4096
8192
0
4096
-4096
8192
0
4096
-4096
8192
0
4096
-4096
8192
0
4096
-4096
8192
0
4096
-4096
8192
0
4096
-4096
8192
0
4096
-4096
8192
0
4096
-4096
8192
0
4096
-4096
8192
0
4096
-4096
8192
0
4096
-4096
8192
0
4096
-4096
8192
0
4096
-4096
8192
0
4096
-4096
8192
0
4096
-4096
8192
0
4096
-4096
8192
0
4096
-4096
8192
0
4096
-4096
8192
0
4096
-4096
8192
0
4096
-4096
8192
0
4096
-4096
8192
0
4096
-4096
8192
0
4096
-4096
8192
0
4096
-4096
8192
0
4096
-4096
8192
0
4096
-4096
8192
0
4096
-4096
8192
0
4096
-4096
8192
0
4096
-4096
8192
0
4096
-4096
8192
0
4096
-4096
8192
0
4096
-4096
8192
0
4096
-4096
8192
0
4096
-4096
8192
0
4096
-4096
8192
0
4096
-4096
8192
0
4096
-4096
8192
0
4096
-4096
8192
0
4096
-4096
8192
0
4096
-4096
8192
0
4096
-4096
8192
0
4096
-4096
8192
0
4096
-4096
8192
0
4096
-4096
8192
0
4096
-4096
8192
0
4096
-4096
8192
0
4096
-4096
8192
0
4096
-4096
8192
0
4096
-4096
8192
0
4096
-4096
8192
0
4096
-4096
8192
0
4096
-4096
8192
0
4096
-4096
8192
0
4096
-4096
8192
0
4096
-4096
8192
0
4096
-4096
8192
0
4096
-4096
8192
0
4096
-4096
8192
0
4096
-4096
8192
0
4096
-4096
8192
0
4096
-4096
8192
0
4096
-4096
8192
0
4096
-4096
8192
0
4096
-4096
8192
0
4096
-4096
8192
0
4096
-4096
8192
0
4096
-4096
8192
0
4096
-4096
8192
0
4096
-4096
8192
0
4096
-4096
8192
0
4096
-4096
8192
0
4096
-4096
8192
0
4096
-4096
8192
0
4096
-4096
8192
0
4096
-4096
8192
0
4096
-4096
8192
0
4096
-4096
8192
0
4096
-4096
8192
0
4096
-4096
8192
0
4096
-4096
8192
0
4096
-4096
8192
0
4096
-4096
8192
0
4096
-4096
8192
0
4096
-4096
8192
0
4096
-4096
8192
0
4096
-4096
8192
0
4096
-4096
8192
0
4096
-4096
8192
0
4096
-4096
8192
0
4096
-4096
8192
0
4096
-4096
8192
0
4096
-4096
8192
0
4096
-4096
8192
0
4096
-4096
8192
0
4096
-4096
8192
0
4096
-4096
8192
0
4096
-4096
8192
0
4096
-4096
8192
0
4096
-4096
8192
0
4096
-4096
8192
0
4096
-4096
8192
0
4096
-4096
8192
0
4096
-4096
8192
0
4096
-4096
8192
0
4096
-4096
8192
0
4096
-4096
8192
0
4096
-4096
8192
0
4096
-4096
8192
0
4096
-4096
8192
0
4096
-4096
8192
0
4096
-4096
8192
0
4096
-4096
8192
0
4096
-4096
8192
0
4096
-4096
8192
0
4096
-4096
8192
0
4096
-4096
8192
0
4096
-4096
8192
0
4096
-4096
8192
0
4096
-4096
8192
0
4096
-4096
8192
0
4096
-4096
8192
0
4096
-4096
8192
0
4096
-4096
8192
0
4096
-4096
8192
0
4096
-4096
8192
0
4096
-4096
8192
0
4096
-4096
8192
0
4096
-4096
8192
0
4096
-4096
8192
0
4096
-4096
8192
0
4096
-4096
8192
0
4096
-4096
8192
0
4096
-4096
8192
0
4096
-4096
8192
0
4096
-4096
8192
0
4096
-4096
8192
0
4096
-4096
8192
0
4096
-4096
8192
0
4096
-4096
8192
0
4096
-4096
8192
0
4096
-4096
8192
0
4096
-4096
8192
0
4096
-4096
8192
0
4096
-4096
8192
0
4096
-4096
8192
0
4096
-4096
8192
0
4096
-4096
8192
0
4096
-4096
8192
0
4096
-4096
8192
0
4096
-4096
8192
0
4096
-4096
8192
0
4096
-4096
8192
0
4096
-4096
8192
0
4096
-4096
8192
0
4096
-4096
8192
0
4096
-4096
8192
0
4096
-4096
8192
0
4096
-4096
8192
0
4096
-4096
8192
0
4096
-4096
8192
0
4096
-4096
8192
0
4096
-4096
8192
0
4096
-4096
8192
0
4096
-4096
8192
0
4096
-4096
8192
0
4096
-4096
8192
0
4096
-4096
8192
0
4096
-4096
8192
0
4096
-4096
8192
0
4096
-4096
8192
0
4096
-4096
8192
0
4096
-4096
8192
0
4096
-4096
8192
0
4096
-4096
8192
0
4096
-4096
8192
0
4096
-4096
8192
0
4096
-4096
8192
0
4096
-4096
8192
0
4096
-4096
8192
0
4096
-4096
8192
0
4096
-4096
8192
0
4096
-4096
8192
0
4096
-4096
8192
0
4096
-4096
8192
0
4096
-4096
8192
0
4096
-4096
8192
0
4096
-4096
8192
0
4096
-4096
8192
0
4096
-4096
8192
0
4096
-4096
8192
0
4096
-4096
8192
0
4096
-4096
8192
0
4096
-4096
8192
0
4096
-4096
8192
0
4096
-4096
8192
0
4096
-4096
8192
0
4096
-4096
8192
0
4096
-4096
8192
0
4096
-4096
8192
0
4096
-4096
8192
0
4096
-4096
8192
0
4096
-4096
8192
0
4096
-4096
8192
0
4096
-4096
8192
0
4096
-4096
8192
0
4096
-4096
8192
0
4096
-4096
8192
0
4096
-4096
8192
0
4096
-4096
8192
0
4096
-4096
8192
0
4096
-4096
8192
0
4096
-4096
8192
0
4096
-4096
8192
0
4096
-4096
8192
0
4096
-4096
8192
0
4096
-4096
8192
0
4096
-4096
8192
0
4096
-4096
8192
0
4096
-4096
8192
0
4096
-4096
8192
0
4096
-4096
8192
0
4096
-4096
8192
0
4096
-4096
8192
0
4096
-4096
8192
0
4096
-4096
8192
0
4096
-4096
8192
0
4096
-4096
8192
0
4096
-4096
8192
0
4096
-4096
8192
0
4096
-4096
8192
0
4096
-4096
8192
0
4096
-4096
8192
0
4096
-4096
8192
0
4096
-4096
8192
0
4096
-4096
8192
0
4096
-4096
8192
0
4096
-4096
8192
0
4096
-4096
8192
0
4096
-4096
8192
0
4096
-4096
8192
0
4096
-4096
8192
0
4096
-4096
8192
0
4096
-4096
8192
0
4096
-4096
8192
0
4096
-4096
8192
0
4096
-4096
8192
0
4096
-4096
8192
0
4096
-4096
8192
0
4096
-4096
8192
0
4096
-4096
8192
0
4096
-4096
8192
0
4096
-4096
8192
0
4096
-4096
8192
0
4096
-4096
8192
0
4096
-4096
8192
0
4096
-4096
8192
0
4096
-4096
8192
0
4096
-4096
8192
0
4096
-4096
8192
0
4096
-4096
8192
0
4096
-4096
8192
0
4096
-4096
8192
0
4096
-4096
8192
0
4096
-4096
8192
0
4096
-4096
8192
0
4096
-4096
8192
0
4096
-4096
8192
0
4096
-4096
8192
0
4096
-4096
8192
0
4096
-4096
8192
0
4096
-4096
8192
0
4096
-4096
8192
0
4096
-4096
8192
0
4096
-4096
8192
0
4096
-4096
8192
0
4096
-4096
8192
0
4096
-4096
8192
0
4096
-4096
8192
0
4096
-4096
8192
0
4096
-4096
8192
0
4096
-4096
8192
0
4096
-4096
8192
0
4096
-4096
8192
0
4096
-4096
8192
0
4096
-4096
8192
0
4096
-4096
8192
0
4096
-4096
8192
0
4096
-4096
8192
0
4096
-4096
8192
0
4096
-4096
8192
0
4096
-4096
8192
0
4096
-4096
8192
0
4096
-4096
8192
0
4096
-4096
8192
0
4096
-4096
8192
0
4096
-4096
8192
0
4096
-4096
8192
0
4096
-4096
8192
0
4096
-4096
8192
0
4096
-4096
8192
0
4096
-4096
8192
0
4096
-4096
8192
0
4096
-4096
8192
0
4096
-4096
8192
0
4096
-4096
8192
0
4096
-4096
8192
0
4096
-4096
8192
0
4096
-4096
8192
0
4096
-4096
8192
0
4096
-4096
8192
0
4096
-4096
8192
0
4096
-4096
8192
0
4096
-4096
8192
0
4096
-4096
8192
0
4096
-4096
8192
0
4096
-4096
8192
0
4096
-4096
8192
0
4096
-4096
8192
0
4096
-4096
8192
0
4096
-4096
8192
0
4096
-4096
8192
0
4096
-4096
8192
0
4096
-4096
8192
0
4096
-4096
8192
0
4096
-4096
8192
0
4096
-4096
8192
0
4096
-4096
8192
0
4096
-4096
8192
0
4096
-4096
8192
0
4096
-4096
8192
0
4096
-4096
8192
0
4096
-4096
8192
0
4096
-4096
8192
0
4096
-4096
8192
0
4096
-4096
8192
0
4096
-4096
8192
0
4096
-4096
8192
0
4096
-4096
8192
0
4096
-4096
8192
0
4096
-4096
8192
0
4096
-4096
8192
0
4096
-4096
8192
0
4096
-4096
8192
0
4096
-4096
8192
0
4096
-4096
8192
0
4096
-4096
8192
0
4096
-4096
8192
0
4096
-4096
8192
0
4096
-4096
8192
0
4096
-4096
8192
0
4096
-4096
8192
0
4096
-4096
8192
0
4096
-4096
8192
0
4096
-4096
8192
0
4096
-4096
8192
0
4096
-4096
8192
0
4096
-4096
8192
0
4096
-4096
8192
0
4096
-4096
8192
0
4096
-4096
8192
0
4096
-4096
8192
0
4096
-4096
8192
0
4096
-4096
8192
0
4096
-4096
8192
0
4096
-4096
8192
0
4096
-4096
8192
0
4096
-4096
8192
0
4096
-4096
8192
0
4096
-4096
8192
0
4096
-4096
8192
0
4096
-4096
8192
0
4096
-4096
8192
0
4096
-4096
8192
0
4096
-4096
8192
0
4096
-4096
8192
0
4096
-4096
8192
0
4096
-4096
8192
0
4096
-4096
8192
0
4096
-4096
8192
0
4096
-4096
8192
0
4096
-4096
8192
0
4096
-4096
8192
0
4096
-4096
8192
0
4096
-4096
8192
0
4096
-4096
8192
0
4096
-4096
8192
0
4096
-4096
8192
0
4096
-4096
8192
0
4096
-4096
8192
0
4096
-4096
8192
0
4096
-4096
8192
0
4096
-4096
8192
0
4096
-4096
8192
0
4096
-4096
8192
0
4096
-4096
8192
0
4096
-4096
8192
0
4096
-4096
8192
0
4096
-4096
8192
0
4096
-4096
8192
0
4096
-4096
8192
0
4096
-4096
8192
0
4096
-4096
8192
0
4096
-4096
8192
0
4096
-4096
8192
0
4096
-4096
8192
0
4096
-4096
8192
0
4096
-4096
8192
0
4096
-4096
8192
0
4096
-4096
8192
0
4096
-4096
8192
0
4096
-4096
8192
0
4096
-4096
8192
0
4096
-4096
8192
0
4096
-4096
8192
0
4096
-4096
8192
0
4096
-4096
8192
0
4096
-4096
8192
0
4096
-4096
8192
0
4096
-4096
8192
0
4096
-4096
8192
0
4096
-4096
8192
0
4096
-4096
8192
0
4096
-4096
8192
0
4096
-4096
8192
0
4096
-4096
8192
0
4096
-4096
8192
0
4096
-4096
8192
0
4096
-4096
8192
0
4096
-4096
8192
0
4096
-4096
8192
0
4096
-4096
8192
0
4096
-4096
8192
0
4096
-4096
8192
0
4096
-4096
8192
0
4096
-4096
8192
0
4096
-4096
8192
0
4096
-4096
8192
0
4096
-4096
8192
0
4096
-4096
8192
0
4096
-4096
8192
0
4096
-4096
8192
0
4096
-4096
8192
0
4096
-4096
8192
0
4096
-4096
8192
0
4096
-4096
8192
0
4096
-4096
8192
0
4096
-4096
8192
0
4096
-4096
8192
0
4096
-4096
8192
0
4096
-4096
8192
0
4096
-4096
8192
0
4096
-4096
8192
0
4096
-4096
8192
0
4096
-4096
8192
0
4096
-4096
8192
0
4096
-4096
8192
0
4096
-4096
8192
0
4096
-4096
8192
0
4096
-4096
8192
0
4096
-4096
8192
0
4096
-4096
8192
0
4096
-4096
8192
0
4096
-4096
8192
0
4096
-4096
8192
0
4096
-4096
8192
0
4096
-4096
8192
0
4096
-4096
8192
0
4096
-4096
8192
0
4096
-4096
8192
0
4096
-4096
8192
0
4096
-4096
8192
0
4096
-4096
8192
0
4096
-4096
8192
0
4096
-4096
8192
0
4096
-4096
8192
0
4096
-4096
8192
0
4096
-4096
8192
0
4096
-4096
8192
0
4096
-4096
8192
0
4096
-4096
8192
0
4096
-4096
8192
0
4096
-4096
8192
0
4096
-4096
8192
0
4096
-4096
8192
0
4096
-4096
8192
0
4096
-4096
8192
0
4096
-4096
8192
0
4096
-4096
8192
0
4096
-4096
8192
0
4096
-4096
8192
0
4096
-4096
8192
0
4096
-4096
8192
0
4096
-4096
8192
0
4096
-4096
8192
0
4096
-4096
8192
0
4096
-4096
8192
0
4096
-4096
8192
0
4096
-4096
8192
0
4096
-4096
8192
0
4096
-4096
8192
0
4096
-4096
8192
0
4096
-4096
8192
0
4096
-4096
8192
0
4096
-4096
8192
0
4096
-4096
8192
0
4096
-4096
8192
0
4096
-4096
8192
0
4096
-4096
8192
0
4096
-4096
8192
0
4096
-4096
8192
0
4096
-4096
8192
0
4096
-4096
8192
0
4096
-4096
8192
0
4096
-4096
8192
0
4096
-4096
8192
0
4096
-4096
8192
0
4096
-4096
8192
0
4096
-4096
8192
0
4096
-4096
8192
0
4096
-4096
8192
0
4096
-4096
8192
0
4096
-4096
8192
0
4096
-4096
8192
0
4096
-4096
8192
0
4096
-4096
8192
0
4096
-4096
8192
0
4096
-4096
8192
0
4096
-4096
8192
0
4096
-4096
8192
0
4096
-4096
8192
0
4096
-4096
8192
0
4096
-4096
8192
0
4096
-4096
8192
0
4096
-4096
8192
0
4096
-4096
8192
0
4096
-4096
8192
0
4096
-4096
8192
0
4096
-4096
8192
0
4096
-4096
8192
0
4096
-4096
8192
0
4096
-4096
8192
0
4096
-4096
8192
0
4096
-4096
8192
0
4096
-4096
8192
0
4096
-4096
8192
0
4096
-4096
8192
0
4096
-4096
8192
0
4096
-4096
8192
0
4096
-4096
8192
0
4096
-4096
8192
0
4096
-4096
8192
0
4096
-4096
8192
0
4096
-4096
8192
0
4096
-4096
8192
0
4096
-4096
8192
0
4096
-4096
8192
0
4096
-4096
8192
0
4096
-4096
8192
0
4096
-4096
8192
0
4096
-4096
8192
0
4096
-4096
8192
0
4096
-4096
8192
0
4096
-4096
8192
0
4096
-4096
8192
0
4096
-4096
8192
0
4096
-4096
8192
0
4096
-4096
8192
0
4096
-4096
8192
0
4096
-4096
8192
0
4096
-4096
8192
0
4096
-4096
8192
0
4096
-4096
8192
0
4096
-4096
8192
0
4096
-4096
8192
0
4096
-4096
8192
0
4096
-4096
8192
0
4096
-4096
8192
0
4096
-4096
8192
0
4096
-4096
8192
0
4096
-4096
8192
0
4096
-4096
8192
0
4096
-4096
8192
0
4096
-4096
8192
0
4096
-4096
8192
0
4096
-4096
8192
0
4096
-4096
8192
0
4096
-4096
8192
0
4096
-4096
8192
0
4096
-4096
8192
0
4096
-4096
8192
0
4096
-4096
8192
0
4096
-4096
8192
0
4096
-4096
8192
0
4096
-4096
8192
0
4096
-4096
8192
0
4096
-4096
8192
0
4096
-4096
8192
0
4096
-4096
8192
0
4096
-4096
8192
0
4096
-4096
8192
0
4096
-4096
8192
0
4096
-4096
8192
0
4096
-4096
8192
0
4096
-4096
8192
0
4096
-4096
8192
0
4096
-4096
8192
0
4096
-4096
8192
0
4096
-4096
8192
0
4096
-4096
8192
0
4096
-4096
8192
0
4096
-4096
8192
0
4096
-4096
8192
0
4096
-4096
8192
0
4096
-4096
8192
0
4096
-4096
8192
0
4096
-4096
8192
0
4096
-4096
8192
0
4096
-4096
8192
0
4096
-4096
8192
0
4096
-4096
8192
0
4096
-4096
8192
0
4096
-4096
8192
0
4096
-4096
8192
0
4096
-4096
8192
0
4096
-4096
8192
0
4096
-4096
8192
0
4096
-4096
8192
0
4096
-4096
8192
0
4096
-4096
8192
0
4096
-4096
8192
0
4096
-4096
8192
0
4096
-4096
8192
0
4096
-4096
8192
0
4096
-4096
8192
0
4096
-4096
8192
0
4096
-4096
8192
0
4096
-4096
8192
0
4096
-4096
8192
0
4096
-4096
8192
0
4096
-4096
8192
0
4096
-4096
8192
0
4096
-4096
8192
0
4096
-4096
8192
0
4096
-4096
8192
0
4096
-4096
8192
0
4096
-4096
8192
0
4096
-4096
8192
0
4096
-4096
8192
0
4096
-4096
8192
0
4096
-4096
8192
0
4096
-4096
8192
0
4096
-4096
8192
0
4096
-4096
8192
0
4096
-4096
8192
0
4096
-4096
8192
0
4096
-4096
8192
0
4096
-4096
8192
0
4096
-4096
8192
0
4096
-4096
8192
0
4096
-4096
8192
0
4096
-4096
8192
0
4096
-4096
8192
0
4096
-4096
8192
0
4096
-4096
8192
0
4096
-4096
8192
0
4096
-4096
8192
0
4096
-4096
8192
0
4096
-4096
8192
0
4096
-4096
8192
0
4096
-4096
8192
0
4096
-4096
8192
0
4096
-4096
8192
0
4096
-4096
8192
0
4096
-4096
8192
0
4096
-4096
8192
0
4096
-4096
8192
0
4096
-4096
8192
0
4096
-4096
8192
0
4096
-4096
8192
0
4096
-4096
8192
0
4096
-4096
8192
0
4096
-4096
8192
0
4096
-4096
8192
0
4096
-4096
8192
0
4096
-4096
8192
0
4096
-4096
8192
0
4096
-4096
8192
0
4096
-4096
8192
0
4096
-4096
8192
0
4096
-4096
8192
0
4096
-4096
8192
0
4096
-4096
8192
0
4096
-4096
8192
0
4096
-4096
8192
0
4096
-4096
8192
0
4096
-4096
8192
0
4096
-4096
8192
0
4096
-4096
8192
0
4096
-4096
8192
0
4096
-4096
8192
0
4096
-4096
8192
0
4096
-4096
8192
0
4096
-4096
8192
0
4096
-4096
8192
0
4096
-4096
8192
0
4096
-4096
8192
0
4096
-4096
8192
0
4096
-4096
8192
0
4096
-4096
8192
0
4096
-4096
8192
0
4096
-4096
8192
0
4096
-4096
8192
0
4096
-4096
8192
0
4096
-4096
8192
0
4096
-4096
8192
0
4096
-4096
8192
0
4096
-4096
8192
0
4096
-4096
8192
0
4096
-4096
8192
0
4096
-4096
8192
0
4096
-4096
8192
0
4096
-4096
8192
0
4096
-4096
8192
0
4096
-4096
8192
0
4096
-4096
8192
0
4096
-4096
8192
0
4096
-4096
8192
0
4096
-4096
8192
0
4096
-4096
8192
0
4096
-4096
8192
0
4096
-4096
8192
0
4096
-4096
8192
0
4096
-4096
8192
0
4096
-4096
8192
0
4096
-4096
8192
0
4096
-4096
8192
0
4096
-4096
8192
0
4096
-4096
8192
0
4096
-4096
8192
0
4096
-4096
8192
0
4096
-4096
8192
0
4096
-4096
8192
0
4096
-4096
8192
0
4096
-4096
8192
0
4096
-4096
8192
0
4096
-4096
8192
0
4096
-4096
8192
0
4096
-4096
8192
0
4096
-4096
8192
0
4096
-4096
8192
0
4096
-4096
8192
0
4096
-4096
8192
0
4096
-4096
8192
0
4096
-4096
8192
0
4096
-4096
8192
0
4096
-4096
8192
0
4096
-4096
8192
0
4096
-4096
8192
0
4096
-4096
8192
0
4096
-4096
8192
0
4096
-4096
8192
0
4096
-4096
8192
0
4096
-4096
8192
0
4096
-4096
8192
0
4096
-4096
8192
0
4096
-4096
8192
0
4096
-4096
8192
0
4096
-4096
8192
0
4096
-4096
8192
0
4096
-4096
8192
0
4096
-4096
8192
0
4096
-4096
8192
0
4096
-4096
8192
0
4096
-4096
8192
0
4096
-4096
8192
0
4096
-4096
8192
0
4096
-4096
8192
0
4096
-4096
8192
0
4096
-4096
8192
0
4096
-4096
8192
0
4096
-4096
8192
0
4096
-4096
8192
0
4096
-4096
8192
0
4096
-4096
8192
0
4096
-4096
8192
0
4096
-4096
8192
0
4096
-4096
8192
0
4096
-4096
8192
0
4096
-4096
8192
0
4096
-4096
8192
0
4096
-4096
8192
0
4096
-4096
8192
0
4096
-4096
8192
0
4096
-4096
8192
0
4096
-4096
8192
0
4096
-4096
8192
0
4096
-4096
8192
0
4096
-4096
8192
0
4096
-4096
8192
0
4096
-4096
8192
0
4096
-4096
8192
0
4096
-4096
8192
0
4096
-4096
8192
0
4096
-4096
8192
0
4096
-4096
8192
0
4096
-4096
8192
0
4096
-4096
8192
0
4096
-4096
8192
0
4096
-4096
8192
0
4096
-4096
8192
0
4096
-4096
8192
0
4096
-4096
8192
0
4096
-4096
8192
0
4096
-4096
8192
0
4096
-4096
8192
0
4096
-4096
8192
0
4096
-4096
8192
0
4096
-4096
8192
0
4096
-4096
8192
0
4096
-4096
8192
0
4096
-4096
8192
0
4096
-4096
8192
0
4096
-4096
8192
0
4096
-4096
8192
0
4096
-4096
8192
0
4096
-4096
8192
0
4096
-4096
8192
0
4096
-4096
8192
0
4096
-4096
8192
0
4096
-4096
8192
0
4096
-4096
8192
0
4096
-4096
8192
0
4096
-4096
8192
0
4096
-4096
8192
0
4096
-4096
8192
0
4096
-4096
8192
0
4096
-4096
8192
0
4096
-4096
8192
0
4096
-4096
8192
0
4096
-4096
8192
0
4096
-4096
8192
0
4096
-4096
8192
0
4096
-4096
8192
0
4096
-4096
8192
0
4096
-4096
8192
0
4096
-4096
8192
0
4096
-4096
8192
0
4096
-4096
8192
0
4096
-4096
8192
0
4096
-4096
8192
0
4096
-4096
8192
0
4096
-4096
8192
0
4096
-4096
8192
0
4096
-4096
8192
0
4096
-4096
8192
0
4096
-4096
8192
0
4096
-4096
8192
0
4096
-4096
8192
0
4096
-4096
8192
0
4096
-4096
8192
0
4096
-4096
8192
0
4096
-4096
8192
0
4096
-4096
8192
0
4096
-4096
8192
0
4096
-4096
8192
0
4096
-4096
8192
0
4096
-4096
8192
0
4096
-4096
8192
0
4096
-4096
8192
0
4096
-4096
8192
0
4096
-4096
8192
0
4096
-4096
8192
0
4096
-4096
8192
0
4096
-4096
8192
0
4096
-4096
8192
0
4096
-4096
8192
0
4096
-4096
8192
0
4096
-4096
8192
0
4096
-4096
8192
0
4096
-4096
8192
0
4096
-4096
8192
0
4096
-4096
8192
0
4096
-4096
8192
0
4096
-4096
8192
0
4096
-4096
8192
0
4096
-4096
8192
0
4096
-4096
8192
0
4096
-4096
8192
0
4096
-4096
8192
0
4096
-4096
8192
0
4096
-4096
8192
0
4096
-4096
8192
0
4096
-4096
8192
0
4096
-4096
8192
0
4096
-4096
8192
0
4096
-4096
8192
0
4096
-4096
8192
0
4096
-4096
8192
0
4096
-4096
8192
0
4096
-4096
8192
0
4096
-4096
8192
0
4096
-4096
8192
0
4096
-4096
8192
0
4096
-4096
8192
0
4096
-4096
8192
0
4096
-4096
8192
0
4096
-4096
8192
0
4096
-4096
8192
0
4096
-4096
8192
0
4096
-4096
8192
0
4096
-4096
8192
0
4096
-4096
8192
0
4096
-4096
8192
0
4096
-4096
8192
0
4096
-4096
8192
0
4096
-4096
8192
0
4096
-4096
8192
0
4096
-4096
8192
0
4096
-4096
8192
0
4096
-4096
8192
0
4096
-4096
8192
0
4096
-4096
8192
0
4096
-4096
8192
0
4096
-4096
8192
0
4096
-4096
8192
0
4096
-4096
8192
0
4096
-4096
8192
0
4096
-4096
8192
0
4096
-4096
8192
0
4096
-4096
8192
0
4096
-4096
8192
0
4096
-4096
8192
0
4096
-4096
8192
0
4096
-4096
8192
0
4096
-4096
8192
0
4096
-4096
8192
0
4096
-4096
8192
0
4096
-4096
8192
0
4096
-4096
8192
0
4096
-4096
8192
0
4096
-4096
8192
0
4096
-4096
8192
0
4096
-4096
8192
0
4096
-4096
8192
0
4096
-4096
8192
0
4096
-4096
8192
0
4096
-4096
8192
0
4096
-4096
8192
0
4096
-4096
8192
0
4096
-4096
8192
0
4096
-4096
8192
0
4096
-4096
8192
0
4096
-4096
8192
0
4096
-4096
8192
0
4096
-4096
8192
0
4096
-4096
8192
0
4096
-4096
8192
0
4096
-4096
8192
0
4096
-4096
8192
0
4096
-4096
8192
0
4096
-4096
8192
0
4096
-4096
8192
0
4096
-4096
8192
0
4096
-4096
8192
0
4096
-4096
8192
0
4096
-4096
8192
0
4096
-4096
8192
0
4096
-4096
8192
0
4096
-4096
8192
0
4096
-4096
8192
0
4096
-4096
8192
0
4096
-4096
8192
0
4096
-4096
8192
0
4096
-4096
8192
0
4096
-4096
8192
0
4096
-4096
8192
0
4096
-4096
8192
0
4096
-4096
8192
0
4096
-4096
8192
0
4096
-4096
8192
0
4096
-4096
8192
0
4096
-4096
8192
0
4096
-4096
8192
0
4096
-4096
8192
0
4096
-4096
8192
0
4096
-4096
8192
0
4096
-4096
8192
0
4096
-4096
8192
0
4096
-4096
8192
0
4096
-4096
8192
0
4096
-4096
8192
0
4096
-4096
8192
0
4096
-4096
8192
0
4096
-4096
8192
0
4096
-4096
8192
0
4096
-4096
8192
0
4096
-4096
8192
0
4096
-4096
8192
0
4096
-4096
8192
0
4096
-4096
8192
0
4096
-4096
8192
0
4096
-4096
8192
0
4096
-4096
8192
0
4096
-4096
8192
0
4096
-4096
8192
0
4096
-4096
8192
0
4096
-4096
8192
0
4096
-4096
8192
0
4096
-4096
8192
0
4096
-4096
8192
0
4096
-4096
8192
0
4096
-4096
8192
0
4096
-4096
8192
0
4096
-4096
8192
0
4096
-4096
8192
0
4096
-4096
8192
0
4096
-4096
8192
0
4096
-4096
8192
0
4096
-4096
8192
0
4096
-4096
8192
0
4096
-4096
8192
0
4096
-4096
8192
0
4096
-4096
8192
0
4096
-4096
8192
0
4096
-4096
8192
0
4096
-4096
8192
0
4096
-4096
8192
0
4096
-4096
8192
0
4096
-4096
8192
0
4096
-4096
8192
0
4096
-4096
8192
0
4096
-4096
8192
0
4096
-4096
8192
0
4096
-4096
8192
0
4096
-4096
8192
0
4096
-4096
8192
0
4096
-4096
8192
0
4096
-4096
8192
0
4096
-4096
8192
0
4096
-4096
8192
0
4096
-4096
8192
0
4096
-4096
8192
0
4096
-4096
8192
0
4096
-4096
8192
0
4096
-4096
8192
0
4096
-4096
8192
0
4096
-4096
8192
0
4096
-4096
8192
0
4096
-4096
8192
0
4096
-4096
8192
0
4096
-4096
8192
0
4096
-4096
8192
0
4096
-4096
8192
0
4096
-4096
8192
0
4096
-4096
8192
0
4096
-4096
8192
0
4096
-4096
8192
0
4096
-4096
8192
0
4096
-4096
8192
0
4096
-4096
8192
0
4096
-4096
8192
0
4096
-4096
8192
0
4096
-4096
8192
0
4096
-4096
8192
0
4096
-4096
8192
0
4096
-4096
8192
0
4096
-4096
8192
0
4096
-4096
8192
0
4096
-4096
8192
0
4096
-4096
8192
0
4096
-4096
8192
0
4096
-4096
8192
0
4096
-4096
8192
0
4096
-4096
8192
0
4096
-4096
8192
0
4096
-4096
8192
0
4096
-4096
8192
0
4096
-4096
8192
0
4096
-4096
8192
0
4096
-4096
8192
0
4096
-4096
8192
0
4096
-4096
8192
0
4096
-4096
8192
0
4096
-4096
8192
0
4096
-4096
8192
0
4096
-4096
8192
0
4096
-4096
8192
0
4096
-4096
8192
0
4096
-4096
8192
0
4096
-4096
8192
0
4096
-4096
8192
0
4096
-4096
8192
0
4096
-4096
8192
0
4096
-4096
8192
0
4096
-4096
8192
0
4096
-4096
8192
0
4096
-4096
8192
0
4096
-4096
8192
0
4096
-4096
8192
0
4096
-4096
8192
0
4096
-4096
8192
0
4096
-4096
8192
0
4096
-4096
8192
0
4096
-4096
8192
0
4096
-4096
8192
0
4096
-4096
8192
0
4096
-4096
8192
0
4096
-4096
8192
0
4096
-4096
8192
0
4096
-4096
8192
0
4096
-4096
8192
0
4096
-4096
8192
0
4096
-4096
8192
0
4096
-4096
8192
0
4096
-4096
8192
0
4096
-4096
8192
0
4096
-4096
8192
0
4096
-4096
8192
0
4096
-4096
8192
0
4096
-4096
8192
0
4096
-4096
8192
0
4096
-4096
8192
0
4096
-4096
8192
0
4096
-4096
8192
0
4096
-4096
8192
0
4096
-4096
8192
0
4096
-4096
8192
0
4096
-4096
8192
0
4096
-4096
8192
0
4096
-4096
8192
0
4096
-4096
8192
0
4096
-4096
8192
0
4096
-4096
8192
0
4096
-4096
8192
0
4096
-4096
8192
0
4096
-4096
8192
0
4096
-4096
8192
0
4096
-4096
8192
0
4096
-4096
8192
0
4096
-4096
8192
0
4096
-4096
8192
0
4096
-4096
8192
0
4096
-4096
8192
0
4096
-4096
8192
0
4096
-4096
8192
0
4096
-4096
8192
0
4096
-4096
8192
0
4096
-4096
8192
0
4096
-4096
8192
0
4096
-4096
8192
0
4096
-4096
8192
0
4096
-4096
8192
0
4096
-4096
8192
0
4096
-4096
8192
0
4096
-4096
8192
0
4096
-4096
8192
0
4096
-4096
8192
0
4096
-4096
8192
0
4096
-4096
8192
0
4096
-4096
8192
0
4096
-4096
8192
0
4096
-4096
8192
0
4096
-4096
8192
0
4096
-4096
8192
0
4096
-4096
8192
0
4096
-4096
8192
0
4096
-4096
8192
0
4096
-4096
8192
0
4096
-4096
8192
0
4096
-4096
8192
0
4096
-4096
8192
0
4096
-4096
8192
0
4096
-4096
8192
0
4096
-4096
8192
0
4096
-4096
8192
0
4096
-4096
8192
0
4096
-4096
8192
0
4096
-4096
8192
0
4096
-4096
8192
0
4096
-4096
8192
0
4096
-4096
8192
0
4096
-4096
8192
0
4096
-4096
8192
0
4096
-4096
8192
0
4096
-4096
8192
0
4096
-4096
8192
0
4096
-4096
8192
0
4096
-4096
8192
0
4096
-4096
8192
0
4096
-4096
8192
0
4096
-4096
8192
0
4096
-4096
8192
0
4096
-4096
8192
0
4096
-4096
8192
0
4096
-4096
8192
0
4096
-4096
8192
0
4096
-4096
8192
0
4096
-4096
8192
0
4096
-4096
8192
0
4096
-4096
8192
0
4096
-4096
8192
0
4096
-4096
8192
0
4096
-4096
8192
0
4096
-4096
8192
0
4096
-4096
8192
0
4096
-4096
8192
0
4096
-4096
8192
0
4096
-4096
8192
0
4096
-4096
8192
0
4096
-4096
8192
0
4096
-4096
8192
0
4096
-4096
8192
0
4096
-4096
8192
0
4096
-4096
8192
0
4096
-4096
8192
0
4096
-4096
8192
0
4096
-4096
8192
0
4096
-4096
8192
0
4096
-4096
8192
0
4096
-4096
8192
0
4096
-4096
8192
0
4096
-4096
8192
0
4096
-4096
8192
0
4096
-4096
8192
0
4096
-4096
8192
0
4096
-4096
8192
0
4096
-4096
8192
0
4096
-4096
8192
0
4096
-4096
8192
0
4096
-4096
8192
0
4096
-4096
8192
0
4096
-4096
8192
0
4096
-4096
8192
0
4096
-4096
8192
0
4096
-4096
8192
0
4096
-4096
8192
0
4096
-4096
8192
0
4096
-4096
8192
0
4096
-4096
8192
0
4096
-4096
8192
0
4096
-4096
8192
0
4096
-4096
8192
0
4096
-4096
8192
0
4096
-4096
8192
0
4096
-4096
8192
0
4096
-4096
8192
0
4096
-4096
8192
0
4096
-4096
8192
0
4096
-4096
8192
0
4096
-4096
8192
0
4096
-4096
8192
0
4096
-4096
8192
0
4096
-4096
8192
0
4096
-4096
8192
0
4096
-4096
8192
0
4096
-4096
8192
0
4096
-4096
8192
0
4096
-4096
8192
0
4096
-4096
8192
0
4096
-4096
8192
0
4096
-4096
8192
0
4096
-4096
8192
0
4096
-4096
8192
0
4096
-4096
8192
0
4096
-4096
8192
0
4096
-4096
8192
0
4096
-4096
8192
0
4096
-4096
8192
0
4096
-4096
8192
0
4096
-4096
8192
0
4096
-4096
8192
0
4096
-4096
8192
0
4096
-4096
8192
0
4096
-4096
8192
0
4096
-4096
8192
0
4096
-4096
8192
0
4096
-4096
8192
0
4096
-4096
8192
0
4096
-4096
8192
0
4096
-4096
8192
0
4096
-4096
8192
0
4096
-4096
8192
0
4096
-4096
8192
0
4096
-4096
8192
0
4096
-4096
8192
0
4096
-4096
8192
0
4096
-4096
8192
0
4096
-4096
8192
0
4096
-4096
8192
0
4096
-4096
8192
0
4096
-4096
8192
0
4096
-4096
8192
0
4096
-4096
8192
0
4096
-4096
8192
0
4096
-4096
8192
0
4096
-4096
8192
0
4096
-4096
8192
0
4096
-4096
8192
0
4096
-4096
8192
0
4096
-4096
8192
0
4096
-4096
8192
0
4096
-4096
8192
0
4096
-4096
8192
0
4096
-4096
8192
0
4096
-4096
8192
0
4096
-4096
8192
0
4096
-4096
8192
0
4096
-4096
8192
0
4096
-4096
8192
0
4096
-4096
8192
0
4096
-4096
8192
0
4096
-4096
8192
0
4096
-4096
8192
0
4096
-4096
8192
0
4096
-4096
8192
0
4096
-4096
8192
0
4096
-4096
8192
0
4096
-4096
8192
0
4096
-4096
8192
0
4096
-4096
8192
0
4096
-4096
8192
0
4096
-4096
8192
0
4096
-4096
8192
0
4096
-4096
8192
0
4096
-4096
8192
0
4096
-4096
8192
0
4096
-4096
8192
0
4096
-4096
8192
0
4096
-4096
8192
0
4096
-4096
8192
0
4096
-4096
8192
0
4096
-4096
8192
0
4096
-4096
8192
0
4096
-4096
8192
0
4096
-4096
8192
0
4096
-4096
8192
0
4096
-4096
8192
0
4096
-4096
8192
0
4096
-4096
8192
0
4096
-4096
8192
0
4096
-4096
8192
0
4096
-4096
8192
0
4096
-4096
8192
0
4096
-4096
8192
0
4096
-4096
8192
0
4096
-4096
8192
0
4096
-4096
8192
0
4096
-4096
8192
0
4096
-4096
8192
0
4096
-4096
8192
0
4096
-4096
8192
0
4096
-4096
8192
0
4096
-4096
8192
0
4096
-4096
8192
0
4096
-4096
8192
0
4096
-4096
8192
0
4096
-4096
8192
0
4096
-4096
8192
0
4096
-4096
8192
0
4096
-4096
8192
0
4096
-4096
8192
0
4096
-4096
8192
0
4096
-4096
8192
0
4096
-4096
8192
0
4096
-4096
8192
0
4096
-4096
8192
0
4096
-4096
8192
0
4096
-4096
8192
0
4096
-4096
8192
0
4096
-4096
8192
0
4096
-4096
8192
0
4096
-4096
8192
0
4096
-4096
8192
0
4096
-4096
8192
0
4096
-4096
8192
0
4096
-4096
8192
0
4096
-4096
8192
0
4096
-4096
8192
0
4096
-4096
8192
0
4096
-4096
8192
0
4096
-4096
8192
0
4096
-4096
8192
0
4096
-4096
8192
0
4096
-4096
8192
0
4096
-4096
8192
0
4096
-4096
8192
0
4096
-4096
8192
0
4096
-4096
8192
0
4096
-4096
8192
0
4096
-4096
8192
0
4096
-4096
8192
0
4096
-4096
8192
0
4096
-4096
8192
0
4096
-4096
8192
0
4096
-4096
8192
0
4096
-4096
8192
0
4096
-4096
8192
0
4096
-4096
8192
0
4096
-4096
8192
0
4096
-4096
8192
0
4096
-4096
8192
0
4096
-4096
8192
0
4096
-4096
8192
0
4096
-4096
8192
0
4096
-4096
8192
0
4096
-4096
8192
0
4096
-4096
8192
0
4096
-4096
8192
0
4096
-4096
8192
0
4096
-4096
8192
0
4096
-4096
8192
0
4096
-4096
8192
0
4096
-4096
8192
0
4096
-4096
8192
0
4096
-4096
8192
0
4096
-4096
8192
0
4096
-4096
8192
0
4096
-4096
8192
0
4096
-4096
8192
0
4096
-4096
8192
0
4096
-4096
8192
0
4096
-4096
8192
0
4096
-4096
8192
0
4096
-4096
8192
0
4096
-4096
8192
0
4096
-4096
8192
0
4096
-4096
8192
0
4096
-4096
8192
0
4096
-4096
8192
0
4096
-4096
8192
0
4096
-4096
8192
0
4096
-4096
8192
0
4096
-4096
8192
0
4096
-4096
8192
0
4096
-4096
8192
0
4096
-4096
8192
0
4096
-4096
8192
0
4096
-4096
8192
0
4096
-4096
8192
0
4096
-4096
8192
0
4096
-4096
8192
0
4096
-4096
8192
0
4096
-4096
8192
0
4096
-4096
8192
0
4096
-4096
8192
0
4096
-4096
8192
0
4096
-4096
8192
0
4096
-4096
8192
0
4096
-4096
8192
0
4096
-4096
8192
0
4096
-4096
8192
0
4096
-4096
8192
0
4096
-4096
8192
0
4096
-4096
8192
0
4096
-4096
8192
0
4096
-4096
8192
0
4096
-4096
8192
0
4096
-4096
8192
0
4096
-4096
8192
0
4096
-4096
8192
0
4096
-4096
8192
0
4096
-4096
8192
0
4096
-4096
8192
0
4096
-4096
8192
0
4096
-4096
8192
0
4096
-4096
8192
0
4096
-4096
8192
0
4096
-4096
8192
0
4096
-4096
8192
0
4096
-4096
8192
0
4096
-4096
8192
0
4096
-4096
8192
0
4096
-4096
8192
0
4096
-4096
8192
0
4096
-4096
8192
0
4096
-4096
8192
0
4096
-4096
8192
0
4096
-4096
8192
0
4096
-4096
8192
0
4096
-4096
8192
0
4096
-4096
8192
0
4096
-4096
8192
0
4096
-4096
8192
0
4096
-4096
8192
0
4096
-4096
8192
0
4096
-4096
8192
0
4096
-4096
8192
0
4096
-4096
8192
0
4096
-4096
8192
0
4096
-4096
8192
0
4096
-4096
8192
0
4096
-4096
8192
0
4096
-4096
8192
0
4096
-4096
8192
0
4096
-4096
8192
0
4096
-4096
8192
0
4096
-4096
8192
0
4096
-4096
8192
0
4096
-4096
8192
0
4096
-4096
8192
0
4096
-4096
8192
0
4096
-4096
8192
0
4096
-4096
8192
0
4096
-4096
8192
0
4096
-4096
8192
0
4096
-4096
8192
0
4096
-4096
8192
0
4096
-4096
8192
0
4096
-4096
8192
0
4096
-4096
8192
0
4096
-4096
8192
0
4096
-4096
8192
0
4096
-4096
8192
0
4096
-4096
8192
0
4096
-4096
8192
0
4096
-4096
8192
0
4096
-4096
8192
0
4096
-4096
8192
0
4096
-4096
8192
0
4096
-4096
8192
0
4096
-4096
8192
0
4096
-4096
8192
0
4096
-4096
8192
0
4096
-4096
8192
0
4096
-4096
8192
0
4096
-4096
8192
0
4096
-4096
8192
0
4096
-4096
8192
0
4096
-4096
8192
0
4096
-4096
8192
0
4096
-4096
8192
0
4096
-4096
8192
0
4096
-4096
8192
0
4096
-4096
8192
0
4096
-4096
8192
0
4096
-4096
8192
0
4096
-4096
8192
0
4096
-4096
8192
0
4096
-4096
8192
0
4096
-4096
8192
0
4096
-4096
8192
0
4096
-4096
8192
0
4096
-4096
8192
0
4096
-4096
8192
0
4096
-4096
8192
0
4096
-4096
8192
0
4096
-4096
8192
0
4096
-4096
8192
0
4096
-4096
8192
0
4096
-4096
8192
0
4096
-4096
8192
0
4096
-4096
8192
0
4096
-4096
8192
0
4096
-4096
8192
0
4096
-4096
8192
0
4096
-4096
8192
0
4096
-4096
8192
0
4096
-4096
8192
0
4096
-4096
8192
0
4096
-4096
8192
0
4096
-4096
8192
0
4096
-4096
8192
0
4096
-4096
8192
0
4096
-4096
8192
0
4096
-4096
8192
0
4096
-4096
8192
0
4096
-4096
8192
0
4096
-4096
8192
0
4096
-4096
8192
0
4096
-4096
8192
0
4096
-4096
8192
0
4096
-4096
8192
0
4096
-4096
8192
0
4096
-4096
8192
0
4096
-4096
8192
0
4096
-4096
8192
0
4096
-4096
8192
0
4096
-4096
8192
0
4096
-4096
8192
0
4096
-4096
8192
0
4096
-4096
8192
0
4096
-4096
8192
0
4096
-4096
8192
0
4096
-4096
8192
0
4096
-4096
8192
0
4096
-4096
8192
0
4096
-4096
8192
0
4096
-4096
8192
0
4096
-4096
8192
0
4096
-4096
8192
0
4096
-4096
8192
0
4096
-4096
8192
0
4096
-4096
8192
0
4096
-4096
8192
0
4096
-4096
8192
0
4096
-4096
8192
0
4096
-4096
8192
0
4096
-4096
8192
0
4096
-4096
8192
0
4096
-4096
8192
0
4096
-4096
8192
0
4096
-4096
8192
0
4096
-4096
8192
0
4096
-4096
8192
0
4096
-4096
8192
0
4096
-4096
8192
0
4096
-4096
8192
0
4096
-4096
8192
0
4096
-4096
8192
0
4096
-4096
8192
0
4096
-4096
8192
0
4096
-4096
8192
0
4096
-4096
8192
0
4096
-4096
8192
0
4096
-4096
8192
0
4096
-4096
8192
0
4096
-4096
8192
0
4096
-4096
8192
0
4096
-4096
8192
0
4096
-4096
8192
0
4096
-4096
8192
0
4096
-4096
8192
0
4096
-4096
8192
0
4096
-4096
8192
0
4096
-4096
8192
0
4096
-4096
8192
0
4096
-4096
8192
0
4096
-4096
8192
0
4096
-4096
8192
0
4096
-4096
8192
0
4096
-4096
8192
0
4096
-4096
8192
0
4096
-4096
8192
0
4096
-4096
8192
0
4096
-4096
8192
0
4096
-4096
8192
0
4096
-4096
8192
0
4096
-4096
8192
0
4096
-4096
8192
0
4096
-4096
8192
0
4096
-4096
8192
0
4096
-4096
8192
0
4096
-4096
8192
0
4096
-4096
8192
0
4096
-4096
8192
0
4096
-4096
8192
0
4096
-4096
8192
0
4096
-4096
8192
0
4096
-4096
8192
0
4096
-4096
8192
0
4096
-4096
8192
0
4096
-4096
8192
0
4096
-4096
8192
0
4096
-4096
8192
0
4096
-4096
8192
0
4096
-4096
8192
0
4096
-4096
8192
0
4096
-4096
8192
0
4096
-4096
8192
0
4096
-4096
8192
0
4096
-4096
8192
0
4096
-4096
8192
0
4096
-4096
8192
0
4096
-4096
8192
0
4096
-4096
8192
0
4096
-4096
8192
0
4096
-4096
8192
0
4096
-4096
8192
0
4096
-4096
8192
0
4096
-4096
8192
0
4096
-4096
8192
0
4096
-4096
8192
0
4096
-4096
8192
0
4096
-4096
8192
0
4096
-4096
8192
0
4096
-4096
8192
0
4096
-4096
8192
0
4096
-4096
8192
0
4096
-4096
8192
0
4096
-4096
8192
0
4096
-4096
8192
0
4096
-4096
8192
0
4096
-4096
8192
0
4096
-4096
8192
0
4096
-4096
8192
0
4096
-4096
8192
0
4096
-4096
8192
0
4096
-4096
8192
0
4096
-4096
8192
0
4096
-4096
8192
0
4096
-4096
8192
0
4096
-4096
8192
0
4096
-4096
8192
0
4096
-4096
8192
0
4096
-4096
8192
0
4096
-4096
8192
0
4096
-4096
8192
0
4096
-4096
8192
0
4096
-4096
8192
0
4096
-4096
8192
0
4096
-4096
8192
0
4096
-4096
8192
0
4096
-4096
8192
0
4096
-4096
8192
0
4096
-4096
8192
0
4096
-4096
8192
0
4096
-4096
8192
0
4096
-4096
8192
0
4096
-4096
8192
0
4096
-4096
8192
0
4096
-4096
8192
0
4096
-4096
8192
0
4096
-4096
8192
0
4096
-4096
8192
0
4096
-4096
8192
0
4096
-4096
8192
0
4096
-4096
8192
0
4096
-4096
8192
0
4096
-4096
8192
0
4096
-4096
8192
0
4096
-4096
8192
0
4096
-4096
8192
0
4096
-4096
8192
0
4096
-4096
8192
0
4096
-4096
8192
0
4096
-4096
8192
0
4096
-4096
8192
0
4096
-4096
8192
0
4096
-4096
8192
0
4096
-4096
8192
0
4096
-4096
8192
0
4096
-4096
8192
0
4096
-4096
8192
0
4096
-4096
8192
0
4096
-4096
8192
0
4096
-4096
8192
0
4096
-4096
8192
0
4096
-4096
8192
0
4096
-4096
8192
0
4096
-4096
8192
0
4096
-4096
8192
0
4096
-4096
8192
0
4096
-4096
8192
0
4096
-4096
8192
0
4096
-4096
8192
0
4096
-4096
8192
0
4096
-4096
8192
0
4096
-4096
8192
0
4096
-4096
8192
0
4096
-4096
8192
0
4096
-4096
8192
0
4096
-4096
8192
0
4096
-4096
8192
0
4096
-4096
8192
0
4096
-4096
8192
0
4096
-4096
8192
0
4096
-4096
8192
0
4096
-4096
8192
0
4096
-4096
8192
0
4096
-4096
8192
0
4096
-4096
8192
0
4096
-4096
8192
0
4096
-4096
8192
0
4096
-4096
8192
0
4096
-4096
8192
0
4096
-4096
8192
0
4096
-4096
8192
0
4096
-4096
8192
0
4096
-4096
8192
0
4096
-4096
8192
0
4096
-4096
8192
0
4096
-4096
8192
0
4096
-4096
8192
0
4096
-4096
8192
0
4096
-4096
8192
0
4096
-4096
8192
0
4096
-4096
8192
0
4096
-4096
8192
0
4096
-4096
8192
0
4096
-4096
8192
0
4096
-4096
8192
0
4096
-4096
8192
0
4096
-4096
8192
0
4096
-4096
8192
0
4096
-4096
8192
0
4096
-4096
8192
0
4096
-4096
8192
0
4096
-4096
8192
0
4096
-4096
8192
0
4096
-4096
8192
0
4096
-4096
8192
0
4096
-4096
8192
0
4096
-4096
8192
0
4096
-4096
8192
0
4096
-4096
8192
0
4096
-4096
8192
0
4096
-4096
8192
0
4096
-4096
8192
0
4096
-4096
8192
0
4096
-4096
8192
0
4096
-4096
8192
0
4096
-4096
8192
0
4096
-4096
8192
0
4096
-4096
8192
0
4096
-4096
8192
0
4096
-4096
8192
0
4096
-4096
8192
0
4096
-4096
8192
0
4096
-4096
8192
0
4096
-4096
8192
0
4096
-4096
8192
0
4096
-4096
8192
0
4096
-4096
8192
0
4096
-4096
8192
0
4096
-4096
8192
0
4096
-4096
8192
0
4096
-4096
8192
0
4096
-4096
8192
0
4096
-4096
8192
0
4096
-4096
8192
0
4096
-4096
8192
0
4096
-4096
8192
0
4096
-4096
8192
0
4096
-4096
8192
0
4096
-4096
8192
0
4096
-4096
8192
0
4096
-4096
8192
0
4096
-4096
8192
0
4096
-4096
8192
0
4096
-4096
8192
0
4096
-4096
8192
0
4096
-4096
8192
0
4096
-4096
8192
0
4096
-4096
8192
0
4096
-4096
8192
0
4096
-4096
8192
0
4096
-4096
8192
0
4096
-4096
8192
0
4096
-4096
8192
0
4096
-4096
8192
0
4096
-4096
8192
0
4096
-4096
8192
0
4096
-4096
8192
0
4096
-4096
8192
0
4096
-4096
8192
0
4096
-4096
8192
0
4096
-4096
8192
0
4096
-4096
8192
0
4096
-4096
8192
0
4096
-4096
8192
0
4096
-4096
8192
0
4096
-4096
8192
0
4096
-4096
8192
0
4096
-4096
8192
0
4096
-4096
8192
0
4096
-4096
8192
0
4096
-4096
8192
0
4096
-4096
8192
0
4096
-4096
8192
0
4096
-4096
8192
0
4096
-4096
8192
0
4096
-4096
8192
0
4096
-4096
8192
0
4096
-4096
8192
0
4096
-4096
8192
0
4096
-4096
8192
0
4096
-4096
8192
0
4096
-4096
8192
0
4096
-4096
8192
0
4096
-4096
8192
0
4096
-4096
8192
0
4096
-4096
8192
0
4096
-4096
8192
0
4096
-4096
8192
0
4096
-4096
8192
0
4096
-4096
8192
0
4096
-4096
8192
0
4096
-4096
8192
0
4096
-4096
8192
0
4096
-4096
8192
0
4096
-4096
8192
0
4096
-4096
8192
0
4096
-4096
8192
0
4096
-4096
8192
0
4096
-4096
8192
0
4096
-4096
8192
0
4096
-4096
8192
0
4096
-4096
8192
0
4096
-4096
8192
0
4096
-4096
8192
0
4096
-4096
8192
0
4096
-4096
8192
0
4096
-4096
8192
0
4096
-4096
8192
0
4096
-4096
8192
0
4096
-4096
8192
0
4096
-4096
8192
0
4096
-4096
8192
0
4096
-4096
8192
0
4096
-4096
8192
0
4096
-4096
8192
0
4096
-4096
8192
0
4096
-4096
8192
0
4096
-4096
8192
0
4096
-4096
8192
0
4096
-4096
8192
0
4096
-4096
8192
0
4096
-4096
8192
0
4096
-4096
8192
0
4096
-4096
8192
0
4096
-4096
8192
0
4096
-4096
8192
0
4096
-4096
8192
0
4096
-4096
8192
0
4096
-4096
8192
0
4096
-4096
8192
0
4096
-4096
8192
0
4096
-4096
8192
0
4096
-4096
8192
0
4096
-4096
8192
0
4096
-4096
8192
0
4096
-4096
8192
0
4096
-4096
8192
0
4096
-4096
8192
0
4096
-4096
8192
0
4096
-4096
8192
0
4096
-4096
8192
0
4096
-4096
8192
0
4096
-4096
8192
0
4096
-4096
8192
0
4096
-4096
8192
0
4096
-4096
8192
0
4096
-4096
8192
0
4096
-4096
8192
0
4096
-4096
8192
0
4096
-4096
8192
0
4096
-4096
8192
0
4096
-4096
8192
0
4096
-4096
8192
0
4096
-4096
8192
0
4096
-4096
8192
0
4096
-4096
8192
0
4096
-4096
8192
0
4096
-4096
8192
0
4096
-4096
8192
0
4096
-4096
8192
0
4096
-4096
8192
0
4096
-4096
8192
0
4096
-4096
8192
0
4096
-4096
8192
0
4096
-4096
8192
0
4096
-4096
8192
0
4096
-4096
8192
0
4096
-4096
8192
0
4096
-4096
8192
0
4096
-4096
8192
0
4096
-4096
8192
0
4096
-4096
8192
0
4096
-4096
8192
0
4096
-4096
8192
0
4096
-4096
8192
0
4096
-4096
8192
0
4096
-4096
8192
0
4096
-4096
8192
0
4096
-4096
8192
0
4096
-4096
8192
0
4096
-4096
8192
0
4096
-4096
8192
0
4096
-4096
8192
0
4096
-4096
8192
0
4096
-4096
8192
0
4096
-4096
8192
0
4096
-4096
8192
0
4096
-4096
8192
0
4096
-4096
8192
0
4096
-4096
8192
0
4096
-4096
8192
0
4096
-4096
8192
0
4096
-4096
8192
0
4096
-4096
8192
0
4096
-4096
8192
0
4096
-4096
8192
0
4096
-4096
8192
0
4096
-4096
8192
0
4096
-4096
8192
0
4096
-4096
8192
0
4096
-4096
8192
0
4096
-4096
8192
0
4096
-4096
8192
0
4096
-4096
8192
0
4096
-4096
8192
0
4096
-4096
8192
0
4096
-4096
8192
0
4096
-4096
8192
0
4096
-4096
8192
0
4096
-4096
8192
0
4096
-4096
8192
0
4096
-4096
8192
0
4096
-4096
8192
0
4096
-4096
8192
0
4096
-4096
8192
0
4096
-4096
8192
0
4096
-4096
8192
0
4096
-4096
8192
0
4096
-4096
8192
0
4096
-4096
8192
0
4096
-4096
8192
0
4096
-4096
8192
0
4096
-4096
8192
0
4096
-4096
8192
0
4096
-4096
8192
0
4096
-4096
8192
0
4096
-4096
8192
0
4096
-4096
8192
0
4096
-4096
8192
0
4096
-4096
8192
0
4096
-4096
8192
0
4096
-4096
8192
0
4096
-4096
8192
0
4096
-4096
8192
0
4096
-4096
8192
0
4096
-4096
8192
0
4096
-4096
8192
0
4096
-4096
8192
0
4096
-4096
8192
0
4096
-4096
8192
0
4096
-4096
8192
0
4096
-4096
8192
0
4096
-4096
8192
0
4096
-4096
8192
0
4096
-4096
8192
0
4096
-4096
8192
0
4096
-4096
8192
0
4096
-4096
8192
0
4096
-4096
8192
0
4096
-4096
8192
0
4096
-4096
8192
0
4096
-4096
8192
0
4096
-4096
8192
0
4096
-4096
8192
0
4096
-4096
8192
0
4096
-4096
8192
0
4096
-4096
8192
0
4096
-4096
8192
0
4096
-4096
8192
0
4096
-4096
8192
0
4096
-4096
8192
0
4096
-4096
8192
0
4096
-4096
8192
0
4096
-4096
8192
0
4096
-4096
8192
0
4096
-4096
8192
0
4096
-4096
8192
0
4096
-4096
8192
0
4096
-4096
8192
0
4096
-4096
8192
0
4096
-4096
8192
0
4096
-4096
8192
0
4096
-4096
8192
0
4096
-4096
8192
0
4096
-4096
8192
0
4096
-4096
8192
0
4096
-4096
8192
0
4096
-4096
8192
0
4096
-4096
8192
0
4096
-4096
8192
0
4096
-4096
8192
0
4096
-4096
8192
0
4096
-4096
8192
0
4096
-4096
8192
0
4096
-4096
8192
0
4096
-4096
8192
0
4096
-4096
8192
0
4096
-4096
8192
0
4096
-4096
8192
0
4096
-4096
8192
0
4096
-4096
8192
0
4096
-4096
8192
0
4096
-4096
8192
0
4096
-4096
8192
0
4096
-4096
8192
0
4096
-4096
8192
0
4096
-4096
8192
0
4096
-4096
8192
0
4096
-4096
8192
0
4096
-4096
8192
0
4096
-4096
8192
0
4096
-4096
8192
0
4096
-4096
8192
0
4096
-4096
8192
0
4096
-4096
8192
0
4096
-4096
8192
0
4096
-4096
8192
0
4096
-4096
8192
0
4096
-4096
8192
0
4096
-4096
8192
0
4096
-4096
8192
0
4096
-4096
8192
0
4096
-4096
8192
0
4096
-4096
8192
0
4096
-4096
8192
0
4096
-4096
8192
0
4096
-4096
8192
0
4096
-4096
8192
0
4096
-4096
8192
0
4096
-4096
8192
0
4096
-4096
8192
0
4096
-4096
8192
0
4096
-4096
8192
0
4096
-4096
8192
0
4096
-4096
8192
0
4096
-4096
8192
0
4096
-4096
8192
0
4096
-4096
8192
0
4096
-4096
8192
0
4096
-4096
8192
0
4096
-4096
8192
0
4096
-4096
8192
0
4096
-4096
8192
0
4096
-4096
8192
0
4096
-4096
8192
0
4096
-4096
8192
0
4096
-4096
8192
0
4096
-4096
8192
0
4096
-4096
8192
0
4096
-4096
8192
0
4096
-4096
8192
0
4096
-4096
8192
0
4096
-4096
8192
0
4096
-4096
8192
0
4096
-4096
8192
0
4096
-4096
8192
0
4096
-4096
8192
0
4096
-4096
8192
0
4096
-4096
8192
0
4096
-4096
8192
0
4096
-4096
8192
0
4096
-4096
8192
0
4096
-4096
8192
0
4096
-4096
8192
0
4096
-4096
8192
0
4096
-4096
8192
0
4096
-4096
8192
0
4096
-4096
8192
0
4096
-4096
8192
0
4096
-4096
8192
0
4096
-4096
8192
0
4096
-4096
8192
0
4096
-4096
8192
0
4096
-4096
8192
0
4096
-4096
8192
0
4096
-4096
8192
0
4096
-4096
8192
0
4096
-4096
8192
0
4096
-4096
8192
0
4096
-4096
8192
0
4096
-4096
8192
0
4096
-4096
8192
0
4096
-4096
8192
0
4096
-4096
8192
0
4096
-4096
8192
0
4096
-4096
8192
0
4096
-4096
8192
0
4096
-4096
8192
0
4096
-4096
8192
0
4096
-4096
8192
0
4096
-4096
8192
0
4096
-4096
8192
0
4096
-4096
8192
0
4096
-4096
8192
0
4096
-4096
8192
0
4096
-4096
8192
0
4096
-4096
8192
0
4096
-4096
8192
0
4096
-4096
8192
0
4096
-4096
8192
0
4096
-4096
8192
0
4096
-4096
8192
0
4096
-4096
8192
0
4096
-4096
8192
0
4096
-4096
8192
0
4096
-4096
8192
0
4096
-4096
8192
0
4096
-4096
8192
0
4096
-4096
8192
0
4096
-4096
8192
0
4096
-4096
8192
0
4096
-4096
8192
0
4096
-4096
8192
0
4096
-4096
8192
0
4096
-4096
8192
0
4096
-4096
8192
0
4096
-4096
8192
0
4096
-4096
8192
0
4096
-4096
8192
0
4096
-4096
8192
0
4096
-4096
8192
0
4096
-4096
8192
0
4096
-4096
8192
0
4096
-4096
8192
0
4096
-4096
8192
0
4096
-4096
8192
0
4096
-4096
8192
0
4096
-4096
8192
0
4096
-4096
8192
0
4096
-4096
8192
0
4096
-4096
8192
0
4096
-4096
8192
0
4096
-4096
8192
0
4096
-4096
8192
0
4096
-4096
8192
0
4096
-4096
8192
0
4096
-4096
8192
0
4096
-4096
8192
0
4096
-4096
8192
0
4096
-4096
8192
0
4096
-4096
8192
0
4096
-4096
8192
0
4096
-4096
8192
0
4096
-4096
8192
0
4096
-4096
8192
0
4096
-4096
8192
0
4096
-4096
8192
0
4096
-4096
8192
0
4096
-4096
8192
0
4096
-4096
8192
0
4096
-4096
8192
0
4096
-4096
8192
0
4096
-4096
8192
0
4096
-4096
8192
0
4096
-4096
8192
0
4096
-4096
8192
0
4096
-4096
8192
0
4096
-4096
8192
0
4096
-4096
8192
0
4096
-4096
8192
0
4096
-4096
8192
0
4096
-4096
8192
0
4096
-4096
8192
0
4096
-4096
8192
0
4096
-4096
8192
0
4096
-4096
8192
0
4096
-4096
8192
0
4096
-4096
8192
0
4096
-4096
8192
0
4096
-4096
8192
0
4096
-4096
8192
0
4096
-4096
8192
0
4096
-4096
8192
0
4096
-4096
8192
0
4096
-4096
8192
0
4096
-4096
8192
0
4096
-4096
8192
0
4096
-4096
8192
0
4096
-4096
8192
0
4096
-4096
8192
0
4096
-4096
8192
0
4096
-4096
8192
0
4096
-4096
8192
0
4096
-4096
8192
0
4096
-4096
8192
0
4096
-4096
8192
0
4096
-4096
8192
0
4096
-4096
8192
0
4096
-4096
8192
0
4096
-4096
8192
0
4096
-4096
8192
0
4096
-4096
8192
0
4096
-4096
8192
0
4096
-4096
8192
0
4096
-4096
8192
0
4096
-4096
8192
0
4096
-4096
8192
0
4096
-4096
8192
0
4096
-4096
8192
0
4096
-4096
8192
0
4096
-4096
8192
0
4096
-4096
8192
0
4096
-4096
8192
0
4096
-4096
8192
0
4096
-4096
8192
0
4096
-4096
8192
0
4096
-4096
8192
0
4096
-4096
8192
0
4096
-4096
8192
0
4096
-4096
8192
0
4096
-4096
8192
0
4096
-4096
8192
0
4096
-4096
8192
0
4096
-4096
8192
0
4096
-4096
8192
0
4096
-4096
8192
0
4096
-4096
8192
0
4096
-4096
8192
0
4096
-4096
8192
0
4096
-4096
8192
0
4096
-4096
8192
0
4096
-4096
8192
0
4096
-4096
8192
0
4096
-4096
8192
0
4096
-4096
8192
0
4096
-4096
8192
0
4096
-4096
8192
0
4096
-4096
8192
0
4096
-4096
8192
0
4096
-4096
8192
0
4096
-4096
8192
0
4096
-4096
8192
0
4096
-4096
8192
0
4096
-4096
8192
0
4096
-4096
8192
0
4096
-4096
8192
0
4096
-4096
8192
0
4096
-4096
8192
0
4096
-4096
8192
0
4096
-4096
8192
0
4096
-4096
8192
0
4096
-4096
8192
0
4096
-4096
8192
0
4096
-4096
8192
0
4096
-4096
8192
0
4096
-4096
8192
0
4096
-4096
8192
0
4096
-4096
8192
0
4096
-4096
8192
0
4096
-4096
8192
0
4096
-4096
8192
0
4096
-4096
8192
0
4096
-4096
8192
0
4096
-4096
8192
0
4096
-4096
8192
0
4096
-4096
8192
0
4096
-4096
8192
0
4096
-4096
8192
0
4096
-4096
8192
0
4096
-4096
8192
0
4096
-4096
8192
0
4096
-4096
8192
0
4096
-4096
8192
0
4096
-4096
8192
0
4096
-4096
8192
0
4096
-4096
8192
0
4096
-4096
8192
0
4096
-4096
8192
0
4096
-4096
8192
0
4096
-4096
8192
0
4096
-4096
8192
0
4096
-4096
8192
0
4096
-4096
8192
0
4096
-4096
8192
0
4096
-4096
8192
0
4096
-4096
8192
0
4096
-4096
8192
0
4096
-4096
8192
0
4096
-4096
8192
0
4096
-4096
8192
0
4096
-4096
8192
0
4096
-4096
8192
0
4096
-4096
8192
0
4096
-4096
8192
0
4096
-4096
8192
0
4096
-4096
8192
0
4096
-4096
8192
0
4096
-4096
8192
0
4096
-4096
8192
0
4096
-4096
8192
0
4096
-4096
8192
0
4096
-4096
8192
0
4096
-4096
8192
0
4096
-4096
8192
0
4096
-4096
8192
0
4096
-4096
8192
0
4096
-4096
8192
0
4096
-4096
8192
0
4096
-4096
8192
0
4096
-4096
8192
0
4096
-4096
8192
0
4096
-4096
8192
0
4096
-4096
8192
0
4096
-4096
8192
0
4096
-4096
8192
0
4096
-4096
8192
0
4096
-4096
8192
0
4096
-4096
8192
0
4096
-4096
8192
0
4096
-4096
8192
0
4096
-4096
8192
0
4096
-4096
8192
0
4096
-4096
8192
0
4096
-4096
8192
0
4096
-4096
8192
0
4096
-4096
8192
0
4096
-4096
8192
0
4096
-4096
8192
0
4096
-4096
8192
0
4096
-4096
8192
0
4096
-4096
8192
0
4096
-4096
8192
0
4096
-4096
8192
0
4096
-4096
8192
0
4096
-4096
8192
0
4096
-4096
8192
0
4096
-4096
8192
0
4096
-4096
8192
0
4096
-4096
8192
0
4096
-4096
8192
0
4096
-4096
8192
0
4096
-4096
8192
0
4096
-4096
8192
0
4096
-4096
8192
0
4096
-4096
8192
0
4096
-4096
8192
0
4096
-4096
8192
0
4096
-4096
8192
0
4096
-4096
8192
0
4096
-4096
8192
0
4096
-4096
8192
0
4096
-4096
8192
0
4096
-4096
8192
0
4096
-4096
8192
0
4096
-4096
8192
0
4096
-4096
8192
0
4096
-4096
8192
0
4096
-4096
8192
0
4096
-4096
8192
0
4096
-4096
8192
0
4096
-4096
8192
0
4096
-4096
8192
0
4096
-4096
8192
0
4096
-4096
8192
0
4096
-4096
8192
0
4096
-4096
8192
0
4096
-4096
8192
0
4096
-4096
8192
0
4096
-4096
8192
0
4096
-4096
8192
0
4096
-4096
8192
0
4096
-4096
8192
0
4096
-4096
8192
0
4096
-4096
8192
0
4096
-4096
8192
0
4096
-4096
8192
0
4096
-4096
8192
0
4096
-4096
8192
0
4096
-4096
8192
0
4096
-4096
8192
0
4096
-4096
8192
0
4096
-4096
8192
0
4096
-4096
8192
0
4096
-4096
8192
0
4096
-4096
8192
0
4096
-4096
8192
0
4096
-4096
8192
0
4096
-4096
8192
0
4096
-4096
8192
0
4096
-4096
8192
0
4096
-4096
8192
0
4096
-4096
8192
0
4096
-4096
8192
0
4096
-4096
8192
0
4096
-4096
8192
0
4096
-4096
8192
0
4096
-4096
8192
0
4096
-4096
8192
0
4096
-4096
8192
0
4096
-4096
8192
0
4096
-4096
8192
0
4096
-4096
8192
0
4096
-4096
8192
0
4096
-4096
8192
0
4096
-4096
8192
0
4096
-4096
8192
0
4096
-4096
8192
0
4096
-4096
8192
0
4096
-4096
8192
0
4096
-4096
8192
0
4096
-4096
8192
0
4096
-4096
8192
0
4096
-4096
8192
0
4096
-4096
8192
0
4096
-4096
8192
0
4096
-4096
8192
0
4096
-4096
8192
0
4096
-4096
8192
0
4096
-4096
8192
0
4096
-4096
8192
0
4096
-4096
8192
0
4096
-4096
8192
0
4096
-4096
8192
0
4096
-4096
8192
0
4096
-4096
8192
0
4096
-4096
8192
0
4096
-4096
8192
0
4096
-4096
8192
0
4096
-4096
8192
0
4096
-4096
8192
0
4096
-4096
8192
0
4096
-4096
8192
0
4096
-4096
8192
0
4096
-4096
8192
0
4096
-4096
8192
0
4096
-4096
8192
0
4096
-4096
8192
0
4096
-4096
8192
0
4096
-4096
8192
0
4096
-4096
8192
0
4096
-4096
8192
0
4096
-4096
8192
0
4096
-4096
8192
0
4096
-4096
8192
0
4096
-4096
8192
0
4096
-4096
8192
0
4096
-4096
8192
0
4096
-4096
8192
0
4096
-4096
8192
0
4096
-4096
8192
0
4096
-4096
8192
0
4096
-4096
8192
0
4096
-4096
8192
0
4096
-4096
8192
0
4096
-4096
8192
0
4096
-4096
8192
0
4096
-4096
8192
0
4096
-4096
8192
0
4096
-4096
8192
0
4096
-4096
8192
0
4096
-4096
8192
0
4096
-4096
8192
0
4096
-4096
8192
0
4096
-4096
8192
0
4096
-4096
8192
0
4096
-4096
8192
0
4096
-4096
8192
0
4096
-4096
8192
0
4096
-4096
8192
0
4096
-4096
8192
0
4096
-4096
8192
0
4096
-4096
8192
0
4096
-4096
8192
0
4096
-4096
8192
0
4096
-4096
8192
0
4096
-4096
8192
0
4096
-4096
8192
0
4096
-4096
8192
0
4096
-4096
8192
0
4096
-4096
8192
0
4096
-4096
8192
0
4096
-4096
8192
0
4096
-4096
8192
0
4096
-4096
8192
0
4096
-4096
8192
0
4096
-4096
8192
0
4096
-4096
8192
0
4096
-4096
8192
0
4096
-4096
8192
0
4096
-4096
8192
0
4096
-4096
8192
0
4096
-4096
8192
0
4096
-4096
8192
0
4096
-4096
8192
0
4096
-4096
8192
0
4096
-4096
8192
0
4096
-4096
8192
0
4096
-4096
8192
0
4096
-4096
8192
0
4096
-4096
8192
0
4096
-4096
8192
0
4096
-4096
8192
0
4096
-4096
8192
0
4096
-4096
8192
0
4096
-4096
8192
0
4096
-4096
8192
0
4096
-4096
8192
0
4096
-4096
8192
0
4096
-4096
8192
0
4096
-4096
8192
0
4096
-4096
8192
0
4096
-4096
8192
0
4096
-4096
8192
0
4096
-4096
8192
0
4096
-4096
8192
0
4096
-4096
8192
0
4096
-4096
8192
0
4096
-4096
8192
0
4096
-4096
8192
0
4096
-4096
8192
0
4096
-4096
8192
0
4096
-4096
8192
0
4096
-4096
8192
0
4096
-4096
8192
0
4096
-4096
8192
0
4096
-4096
8192
0
4096
-4096
8192
0
4096
-4096
8192
0
4096
-4096
8192
0
4096
-4096
8192
0
4096
-4096
8192
0
4096
-4096
8192
0
4096
-4096
8192
0
4096
-4096
8192
0
4096
-4096
8192
0
4096
-4096
8192
0
4096
-4096
8192
0
4096
-4096
8192
0
4096
-4096
8192
0
4096
-4096
8192
0
4096
-4096
8192
0
4096
-4096
8192
0
4096
-4096
8192
0
4096
-4096
8192
0
4096
-4096
8192
0
4096
-4096
8192
0
4096
-4096
8192
0
4096
-4096
8192
0
4096
-4096
8192
0
4096
-4096
8192
0
4096
-4096
8192
0
4096
-4096
8192
0
4096
-4096
8192
0
4096
-4096
8192
0
4096
-4096
8192
0
4096
-4096
8192
0
4096
-4096
8192
0
4096
-4096
8192
0
4096
-4096
8192
0
4096
-4096
8192
0
4096
-4096
8192
0
4096
-4096
8192
0
4096
-4096
8192
0
4096
-4096
8192
0
4096
-4096
8192
0
4096
-4096
8192
0
4096
-4096
8192
0
4096
-4096
8192
0
4096
-4096
8192
0
4096
-4096
8192
0
4096
-4096
8192
0
4096
-4096
8192
0
4096
-4096
8192
0
4096
-4096
8192
0
4096
-4096
8192
0
4096
-4096
8192
0
4096
-4096
8192
0
4096
-4096
8192
0
4096
-4096
8192
0
4096
-4096
8192
0
4096
-4096
8192
0
4096
-4096
8192
0
4096
-4096
8192
0
4096
-4096
8192
0
4096
-4096
8192
0
4096
-4096
8192
0
4096
-4096
8192
0
4096
-4096
8192
0
4096
-4096
8192
0
4096
-4096
8192
0
4096
-4096
8192
0
4096
-4096
8192
0
4096
-4096
8192
0
4096
-4096
8192
0
4096
-4096
8192
0
4096
-4096
8192
0
4096
-4096
8192
0
4096
-4096
8192
0
4096
-4096
8192
0
4096
-4096
8192
0
4096
-4096
8192
0
4096
-4096
8192
0
4096
-4096
8192
0
4096
-4096
8192
0
4096
-4096
8192
0
4096
-4096
8192
0
4096
-4096
8192
0
4096
-4096
8192
0
4096
-4096
8192
0
4096
-4096
8192
0
4096
-4096
8192
0
4096
-4096
8192
0
4096
-4096
8192
0
4096
-4096
8192
0
4096
-4096
8192
0
4096
-4096
8192
0
4096
-4096
8192
0
4096
-4096
8192
0
4096
-4096
8192
0
4096
-4096
8192
0
4096
-4096
8192
0
4096
-4096
8192
0
4096
-4096
8192
0
4096
-4096
8192
0
4096
-4096
8192
0
4096
-4096
8192
0
4096
-4096
8192
0
4096
-4096
8192
0
4096
-4096
8192
0
4096
-4096
8192
0
4096
-4096
8192
0
4096
-4096
8192
0
4096
-4096
8192
0
4096
-4096
8192
0
4096
-4096
8192
0
4096
-4096
8192
0
4096
-4096
8192
0
4096
-4096
8192
0
4096
-4096
8192
0
4096
-4096
8192
0
4096
-4096
8192
0
4096
-4096
8192
0
4096
-4096
8192
0
4096
-4096
8192
0
4096
-4096
8192
0
4096
-4096
8192
0
4096
-4096
8192
0
4096
-4096
8192
0
4096
-4096
8192
0
4096
-4096
8192
0
4096
-4096
8192
0
4096
-4096
8192
0
4096
-4096
8192
0
4096
-4096
8192
0
4096
-4096
8192
0
4096
-4096
8192
0
4096
-4096
8192
0
4096
-4096
8192
0
4096
-4096
8192
0
4096
-4096
8192
0
4096
-4096
8192
0
4096
-4096
8192
0
4096
-4096
8192
0
4096
-4096
8192
0
4096
-4096
8192
0
4096
-4096
8192
0
4096
-4096
8192
0
4096
-4096
8192
0
4096
-4096
8192
0
4096
-4096
8192
0
4096
-4096
8192
0
4096
-4096
8192
0
4096
-4096
8192
0
4096
-4096
8192
0
4096
-4096
8192
0
4096
-4096
8192
0
4096
-4096
8192
0
4096
-4096
8192
0
4096
-4096
8192
0
4096
-4096
8192
0
4096
-4096
8192
0
4096
-4096
8192
0
4096
-4096
8192
0
4096
-4096
8192
0
4096
-4096
8192
0
4096
-4096
8192
0
4096
-4096
8192
0
4096
-4096
8192
0
4096
-4096
8192
0
4096
-4096
8192
0
4096
-4096
8192
0
4096
-4096
8192
0
4096
-4096
8192
0
4096
-4096
8192
0
4096
-4096
8192
0
4096
-4096
8192
0
4096
-4096
8192
0
4096
-4096
8192
0
4096
-4096
8192
0
4096
-4096
8192
0
4096
-4096
8192
0
4096
-4096
8192
0
4096
-4096
8192
0
4096
-4096
8192
0
4096
-4096
8192
0
4096
-4096
8192
0
4096
-4096
8192
0
4096
-4096
8192
0
4096
-4096
8192
0
4096
-4096
8192
0
4096
-4096
8192
0
4096
-4096
8192
0
4096
-4096
8192
0
4096
-4096
8192
0
4096
-4096
8192
0
4096
-4096
8192
0
4096
-4096
8192
0
4096
-4096
8192
0
4096
-4096
8192
0
4096
-4096
8192
0
4096
-4096
8192
0
4096
-4096
8192
0
4096
-4096
8192
0
4096
-4096
8192
0
4096
-4096
8192
0
4096
-4096
8192
0
4096
-4096
8192
0
4096
-4096
8192
0
4096
-4096
8192
0
4096
-4096
8192
0
4096
-4096
8192
0
4096
-4096
8192
0
4096
-4096
8192
0
4096
-4096
8192
0
4096
-4096
8192
0
4096
-4096
8192
0
4096
-4096
8192
0
4096
-4096
8192
0
4096
-4096
8192
0
4096
-4096
8192
0
4096
-4096
8192
0
4096
-4096
8192
0
4096
-4096
8192
0
4096
-4096
8192
0
4096
-4096
8192
0
4096
-4096
8192
0
4096
-4096
8192
0
4096
-4096
8192
0
4096
-4096
8192
0
4096
-4096
8192
0
4096
-4096
8192
0
4096
-4096
8192
0
4096
-4096
8192
0
4096
-4096
8192
0
4096
-4096
8192
0
4096
-4096
8192
0
4096
-4096
8192
0
4096
-4096
8192
0
4096
-4096
8192
0
4096
-4096
8192
0
4096
-4096
8192
0
4096
-4096
8192
0
4096
-4096
8192
0
4096
-4096
8192
0
4096
-4096
8192
0
4096
-4096
8192
0
4096
-4096
8192
0
4096
-4096
8192
0
4096
-4096
8192
0
4096
-4096
8192
0
4096
-4096
8192
0
4096
-4096
8192
0
4096
-4096
8192
0
4096
-4096
8192
0
4096
-4096
8192
0
4096
-4096
8192
0
4096
-4096
8192
0
4096
-4096
8192
0
4096
-4096
8192
0
4096
-4096
8192
0
4096
-4096
8192
0
4096
-4096
8192
0
4096
-4096
8192
0
4096
-4096
8192
0
4096
-4096
8192
0
4096
-4096
8192
0
4096
-4096
8192
0
4096
-4096
8192
0
4096
-4096
8192
0
4096
-4096
8192
0
4096
-4096
8192
0
4096
-4096
8192
0
4096
-4096
8192
0
4096
-4096
8192
0
4096
-4096
8192
0
4096
-4096
8192
0
4096
-4096
8192
0
4096
-4096
8192
0
4096
-4096
8192
0
4096
-4096
8192
0
4096
-4096
8192
0
4096
-4096
8192
0
4096
-4096
8192
0
4096
-4096
8192
0
4096
-4096
8192
0
4096
-4096
8192
0
4096
-4096
8192
0
4096
-4096
8192
0
4096
-4096
8192
0
4096
-4096
8192
0
4096
-4096
8192
0
4096
-4096
8192
0
4096
-4096
8192
0
4096
-4096
8192
0
4096
-4096
8192
0
4096
-4096
8192
0
4096
-4096
8192
0
4096
-4096
8192
0
4096
-4096
8192
0
4096
-4096
8192
0
4096
-4096
8192
0
4096
-4096
8192
0
4096
-4096
8192
0
4096
-4096
8192
0
4096
-4096
8192
0
4096
-4096
8192
0
4096
-4096
8192
0
4096
-4096
8192
0
4096
-4096
8192
0
4096
-4096
8192
0
4096
-4096
8192
0
4096
-4096
8192
0
4096
-4096
8192
0
4096
-4096
8192
0
4096
-4096
8192
0
4096
-4096
8192
0
4096
-4096
8192
0
4096
-4096
8192
0
4096
-4096
8192
0
4096
-4096
8192
0
4096
-4096
8192
0
4096
-4096
8192
0
4096
-4096
8192
0
4096
-4096
8192
0
4096
-4096
8192
0
4096
-4096
8192
0
4096
-4096
8192
0
4096
-4096
8192
0
4096
-4096
8192
0
4096
-4096
8192
0
4096
-4096
8192
0
4096
-4096
8192
0
4096
-4096
8192
0
4096
-4096
8192
0
4096
-4096
8192
0
4096
-4096
8192
0
4096
-4096
8192
0
4096
-4096
8192
0
4096
-4096
8192
0
4096
-4096
8192
0
4096
-4096
8192
0
4096
-4096
8192
0
4096
-4096
8192
0
4096
-4096
8192
0
4096
-4096
8192
0
4096
-4096
8192
0
4096
-4096
8192
0
4096
-4096
8192
0
4096
-4096
8192
0
4096
-4096
8192
0
4096
-4096
8192
0
4096
-4096
8192
0
4096
-4096
8192
0
4096
-4096
8192
0
4096
-4096
8192
0
4096
-4096
8192
0
4096
-4096
8192
0
4096
-4096
8192
0
4096
-4096
8192
0
4096
-4096
8192
0
4096
-4096
8192
0
4096
-4096
8192
0
4096
-4096
8192
0
4096
-4096
8192
0
4096
-4096
8192
0
4096
-4096
8192
0
4096
-4096
8192
0
4096
-4096
8192
0
4096
-4096
8192
0
4096
-4096
8192
0
4096
-4096
8192
0
4096
-4096
8192
0
4096
-4096
8192
0
4096
-4096
8192
0
4096
-4096
8192
0
4096
-4096
8192
0
4096
-4096
8192
0
4096
-4096
8192
0
4096
-4096
8192
0
4096
-4096
8192
0
4096
-4096
8192
0
4096
-4096
8192
0
4096
-4096
8192
0
4096
-4096
8192
0
4096
-4096
8192
0
4096
-4096
8192
0
4096
-4096
8192
0
4096
-4096
8192
0
4096
-4096
8192
0
4096
-4096
8192
0
4096
-4096
8192
0
4096
-4096
8192
0
4096
-4096
8192
0
4096
-4096
8192
0
4096
-4096
8192
0
4096
-4096
8192
0
4096
-4096
8192
0
4096
-4096
8192
0
4096
-4096
8192
0
4096
-4096
8192
0
4096
-4096
8192
0
4096
-4096
8192
0
4096
-4096
8192
0
4096
-4096
8192
0
4096
-4096
8192
0
4096
-4096
8192
0
4096
-4096
8192
0
4096
-4096
8192
0
4096
-4096
8192
0
4096
-4096
8192
0
4096
-4096
8192
0
4096
-4096
8192
0
4096
-4096
8192
0
4096
-4096
8192
0
4096
-4096
8192
0
4096
-4096
8192
0
4096
-4096
8192
0
4096
-4096
8192
0
4096
-4096
8192
0
4096
-4096
8192
0
4096
-4096
8192
0
4096
-4096
8192
0
4096
-4096
8192
0
4096
-4096
8192
0
4096
-4096
8192
0
4096
-4096
8192
0
4096
-4096
8192
0
4096
-4096
8192
0
4096
-4096
8192
0
4096
-4096
8192
0
4096
-4096
8192
0
4096
-4096
8192
0
4096
-4096
8192
0
4096
-4096
8192
0
4096
-4096
8192
0
4096
-4096
8192
0
4096
-4096
8192
0
4096
-4096
8192
0
4096
-4096
8192
0
4096
-4096
8192
0
4096
-4096
8192
0
4096
-4096
8192
0
4096
-4096
8192
0
4096
-4096
8192
0
4096
-4096
8192
0
4096
-4096
8192
0
4096
-4096
8192
0
4096
-4096
8192
0
4096
-4096
8192
0
4096
-4096
8192
0
4096
-4096
8192
0
4096
-4096
8192
0
4096
-4096
8192
0
4096
-4096
8192
0
4096
-4096
8192
0
4096
-4096
8192
0
4096
-4096
8192
0
4096
-4096
8192
0
4096
-4096
8192
0
4096
-4096
8192
0
4096
-4096
8192
0
4096
-4096
8192
0
4096
-4096
8192
0
4096
-4096
8192
0
4096
-4096
8192
0
4096
-4096
8192
0
4096
-4096
8192
0
4096
-4096
8192
0
4096
-4096
8192
0
4096
-4096
8192
0
4096
-4096
8192
0
4096
-4096
8192
0
4096
-4096
8192
0
4096
-4096
8192
0
4096
-4096
8192
0
4096
-4096
8192
0
4096
-4096
8192
0
4096
-4096
8192
0
4096
-4096
8192
0
4096
-4096
8192
0
4096
-4096
8192
0
4096
-4096
8192
0
4096
-4096
8192
0
4096
-4096
8192
0
4096
-4096
8192
0
4096
-4096
8192
0
4096
-4096
8192
0
4096
-4096
8192
0
4096
-4096
8192
0
4096
-4096
8192
0
4096
-4096
8192
0
4096
-4096
8192
0
4096
-4096
8192
0
4096
-4096
8192
0
4096
-4096
8192
0
4096
-4096
8192
0
4096
-4096
8192
0
4096
-4096
8192
0
4096
-4096
8192
0
4096
-4096
8192
0
4096
-4096
8192
0
4096
-4096
8192
0
4096
-4096
8192
0
4096
-4096
8192
0
4096
-4096
8192
0
4096
-4096
8192
0
4096
-4096
8192
0
4096
-4096
8192
0
4096
-4096
8192
0
4096
-4096
8192
0
4096
-4096
8192
0
4096
-4096
8192
0
4096
-4096
8192
0
4096
-4096
8192
0
4096
-4096
8192
0
4096
-4096
8192
0
4096
-4096
8192
0
4096
-4096
8192
0
4096
-4096
8192
0
4096
-4096
8192
0
4096
-4096
8192
0
4096
-4096
8192
0
4096
-4096
8192
0
4096
-4096
8192
0
4096
-4096
8192
0
4096
-4096
8192
0
4096
-4096
8192
0
4096
-4096
8192
0
4096
-4096
8192
0
4096
-4096
8192
0
4096
-4096
8192
0
4096
-4096
8192
0
4096
-4096
8192
0
4096
-4096
8192
0
4096
-4096
8192
0
4096
-4096
8192
0
4096
-4096
8192
0
4096
-4096
8192
0
4096
-4096
8192
0
4096
-4096
8192
0
4096
-4096
8192
0
4096
-4096
8192
0
4096
-4096
8192
0
4096
-4096
8192
0
4096
-4096
8192
0
4096
-4096
8192
0
4096
-4096
8192
0
4096
-4096
8192
0
4096
-4096
8192
0
4096
-4096
8192
0
4096
-4096
8192
0
4096
-4096
8192
0
4096
-4096
8192
0
4096
-4096
8192
0
4096
-4096
8192
0
4096
-4096
8192
0
4096
-4096
8192
0
4096
-4096
8192
0
4096
-4096
8192
0
4096
-4096
8192
0
4096
-4096
8192
0
4096
-4096
8192
0
4096
-4096
8192
0
4096
-4096
8192
0
4096
-4096
8192
0
4096
-4096
8192
0
4096
-4096
8192
0
4096
-4096
8192
0
4096
-4096
8192
0
4096
-4096
8192
0
4096
-4096
8192
0
4096
-4096
8192
0
4096
-4096
8192
0
4096
-4096
8192
0
4096
-4096
8192
0
4096
-4096
8192
0
4096
-4096
8192
0
4096
-4096
8192
0
4096
-4096
8192
0
4096
-4096
8192
0
4096
-4096
8192
0
4096
-4096
8192
0
4096
-4096
8192
0
4096
-4096
8192
0
4096
-4096
8192
0
4096
-4096
8192
0
4096
-4096
8192
0
4096
-4096
8192
0
4096
-4096
8192
0
4096
-4096
8192
0
4096
-4096
8192
0
4096
-4096
8192
0
4096
-4096
8192
0
4096
-4096
8192
0
4096
-4096
8192
0
4096
-4096
8192
0
4096
-4096
8192
0
4096
-4096
8192
0
4096
-4096
8192
0
4096
-4096
8192
0
4096
-4096
8192
0
4096
-4096
8192
0
4096
-4096
8192
0
4096
-4096
8192
0
4096
-4096
8192
0
4096
-4096
8192
0
4096
-4096
8192
0
4096
-4096
8192
0
4096
-4096
8192
0
4096
-4096
8192
0
4096
-4096
8192
0
4096
-4096
8192
0
4096
-4096
8192
0
4096
-4096
8192
0
4096
-4096
8192
0
4096
-4096
8192
0
4096
-4096
8192
0
4096
-4096
8192
0
4096
-4096
8192
0
4096
-4096
8192
0
4096
-4096
8192
0
4096
-4096
8192
0
4096
-4096
8192
0
4096
-4096
8192
0
4096
-4096
8192
0
4096
-4096
8192
0
4096
-4096
8192
0
4096
-4096
8192
0
4096
-4096
8192
0
4096
-4096
8192
0
4096
-4096
8192
0
4096
-4096
8192
0
4096
-4096
8192
0
4096
-4096
8192
0
4096
-4096
8192
0
4096
-4096
8192
0
4096
-4096
8192
0
4096
-4096
8192
0
4096
-4096
8192
0
4096
-4096
8192
0
4096
-4096
8192
0
4096
-4096
8192
0
4096
-4096
8192
0
4096
-4096
8192
0
4096
-4096
8192
0
4096
-4096
8192
0
4096
-4096
8192
0
4096
-4096
8192
0
4096
-4096
8192
0
4096
-4096
8192
0
4096
-4096
8192
0
4096
-4096
8192
0
4096
-4096
8192
0
4096
-4096
8192
0
4096
-4096
8192
0
4096
-4096
8192
0
4096
-4096
8192
0
4096
-4096
8192
0
4096
-4096
8192
0
4096
-4096
8192
0
4096
-4096
8192
0
4096
-4096
8192
0
4096
-4096
8192
0
4096
-4096
8192
0
4096
-4096
8192
0
4096
-4096
8192
0
4096
-4096
8192
0
4096
-4096
8192
0
4096
-4096
8192
0
4096
-4096
8192
0
4096
-4096
8192
0
4096
-4096
8192
0
4096
-4096
8192
0
4096
-4096
8192
0
4096
-4096
8192
0
4096
-4096
8192
0
4096
-4096
8192
0
4096
-4096
8192
0
4096
-4096
8192
0
4096
-4096
8192
0
4096
-4096
8192
0
4096
-4096
8192
0
4096
-4096
8192
0
4096
-4096
8192
0
4096
-4096
8192
0
4096
-4096
8192
0
4096
-4096
8192
0
4096
-4096
8192
0
4096
-4096
8192
0
4096
-4096
8192
0
4096
-4096
8192
0
4096
-4096
8192
0
4096
-4096
8192
0
4096
-4096
8192
0
4096
-4096
8192
0
4096
-4096
8192
0
4096
-4096
8192
0
4096
-4096
8192
0
4096
-4096
8192
0
4096
-4096
8192
0
4096
-4096
8192
0
4096
-4096
8192
0
4096
-4096
8192
0
4096
-4096
8192
0
4096
-4096
8192
0
4096
-4096
8192
0
4096
-4096
8192
0
4096
-4096
8192
0
4096
-4096
8192
0
4096
-4096
8192
0
4096
-4096
8192
0
4096
-4096
8192
0
4096
-4096
8192
0
4096
-4096
8192
0
4096
-4096
8192
0
4096
-4096
8192
0
4096
-4096
8192
0
4096
-4096
8192
0
4096
-4096
8192
0
4096
-4096
8192
0
4096
-4096
8192
0
4096
-4096
8192
0
4096
-4096
8192
0
4096
-4096
8192
0
4096
-4096
8192
0
4096
-4096
8192
0
4096
-4096
8192
0
4096
-4096
8192
0
4096
-4096
8192
0
4096
-4096
8192
0
4096
-4096
8192
0
4096
-4096
8192
0
4096
-4096
8192
0
4096
-4096
8192
0
4096
-4096
8192
0
4096
-4096
8192
0
4096
-4096
8192
0
4096
-4096
8192
0
4096
-4096
8192
0
4096
-4096
8192
0
4096
-4096
8192
0
4096
-4096
8192
0
4096
-4096
8192
0
4096
-4096
8192
0
4096
-4096
8192
0
4096
-4096
8192
0
4096
-4096
8192
0
4096
-4096
8192
0
4096
-4096
8192
0
4096
-4096
8192
0
4096
-4096
8192
0
4096
-4096
8192
0
4096
-4096
8192
0
4096
-4096
8192
0
4096
-4096
8192
0
4096
-4096
8192
0
4096
-4096
8192
0
4096
-4096
8192
0
4096
-4096
8192
0
4096
-4096
8192
0
4096
-4096
8192
0
4096
-4096
8192
0
4096
-4096
8192
0
4096
-4096
8192
0
4096
-4096
8192
0
4096
-4096
8192
0
4096
-4096
8192
0
4096
-4096
8192
0
4096
-4096
8192
0
4096
-4096
8192
0
4096
-4096
8192
0
4096
-4096
8192
0
4096
-4096
8192
0
4096
-4096
8192
0
4096
-4096
8192
0
4096
-4096
8192
0
4096
-4096
8192
0
4096
-4096
8192
0
4096
-4096
8192
0
4096
-4096
8192
0
4096
-4096
8192
0
4096
-4096
8192
0
4096
-4096
8192
0
4096
-4096
8192
0
4096
-4096
8192
0
4096
-4096
8192
0
4096
-4096
8192
0
4096
-4096
8192
0
4096
-4096
8192
0
4096
-4096
8192
0
4096
-4096
8192
0
4096
-4096
8192
0
4096
-4096
8192
0
4096
-4096
8192
0
4096
-4096
8192
0
4096
-4096
8192
0
4096
-4096
8192
0
4096
-4096
8192
0
4096
-4096
8192
0
4096
-4096
8192
0
4096
-4096
8192
0
4096
-4096
8192
0
4096
-4096
8192
0
4096
-4096
8192
0
4096
-4096
8192
0
4096
-4096
8192
0
4096
-4096
8192
0
4096
-4096
8192
0
4096
-4096
8192
0
4096
-4096
8192
0
4096
-4096
8192
0
4096
-4096
8192
0
4096
-4096
8192
0
4096
-4096
8192
0
4096
-4096
8192
0
4096
-4096
8192
0
4096
-4096
8192
0
4096
-4096
8192
0
4096
-4096
8192
0
4096
-4096
8192
0
4096
-4096
8192
0
4096
-4096
8192
0
4096
-4096
8192
0
4096
-4096
8192
0
4096
-4096
8192
0
4096
-4096
8192
0
4096
-4096
8192
0
4096
-4096
8192
0
4096
-4096
8192
0
4096
-4096
8192
0
4096
-4096
8192
0
4096
-4096
8192
0
4096
-4096
8192
0
4096
-4096
8192
0
4096
-4096
8192
0
4096
-4096
8192
0
4096
-4096
8192
0
4096
-4096
8192
0
4096
-4096
8192
0
4096
-4096
8192
0
4096
-4096
8192
0
4096
-4096
8192
0
4096
-4096
8192
0
4096
-4096
8192
0
4096
-4096
8192
0
4096
-4096
8192
0
4096
-4096
8192
0
4096
-4096
8192
0
4096
-4096
8192
0
4096
-4096
8192
0
4096
-4096
8192
0
4096
-4096
8192
0
4096
-4096
8192
0
4096
-4096
8192
0
4096
-4096
8192
0
4096
-4096
8192
0
4096
-4096
8192
0
4096
-4096
8192
0
4096
-4096
8192
0
4096
-4096
8192
0
4096
-4096
8192
0
4096
-4096
8192
0
4096
-4096
8192
0
4096
-4096
8192
0
4096
-4096
8192
0
4096
-4096
8192
0
4096
-4096
8192
0
4096
-4096
8192
0
4096
-4096
8192
0
4096
-4096
8192
0
4096
-4096
8192
0
4096
-4096
8192
0
4096
-4096
8192
0
4096
-4096
8192
0
4096
-4096
8192
0
4096
-4096
8192
0
4096
-4096
8192
0
4096
-4096
8192
0
4096
-4096
8192
0
4096
-4096
8192
0
4096
-4096
8192
0
4096
-4096
8192
0
4096
-4096
8192
0
4096
-4096
8192
0
4096
-4096
8192
0
4096
-4096
8192
0
4096
-4096
8192
0
4096
-4096
8192
0
4096
-4096
8192
0
4096
-4096
8192
0
4096
-4096
8192
0
4096
-4096
8192
0
4096
-4096
8192
0
4096
-4096
8192
0
4096
-4096
8192
0
4096
-4096
8192
0
4096
-4096
8192
0
4096
-4096
8192
0
4096
-4096
8192
0
4096
-4096
8192
0
4096
-4096
8192
0
4096
-4096
8192
0
4096
-4096
8192
0
4096
-4096
8192
0
4096
-4096
8192
0
4096
-4096
8192
0
4096
-4096
8192
0
4096
-4096
8192
0
4096
-4096
8192
0
4096
-4096
8192
0
4096
-4096
8192
0
4096
-4096
8192
0
4096
-4096
8192
0
4096
-4096
8192
0
4096
-4096
8192
0
4096
-4096
8192
0
4096
-4096
8192
0
4096
-4096
8192
0
4096
-4096
8192
0
4096
-4096
8192
0
4096
-4096
8192
0
4096
-4096
8192
0
4096
-4096
8192
0
4096
-4096
8192
0
4096
-4096
8192
0
4096
-4096
8192
0
4096
-4096
8192
0
4096
-4096
8192
0
4096
-4096
8192
0
4096
-4096
8192
0
4096
-4096
8192
0
4096
-4096
8192
0
4096
-4096
8192
0
4096
-4096
8192
0
4096
-4096
8192
0
4096
-4096
8192
0
4096
-4096
8192
0
4096
-4096
8192
0
4096
-4096
8192
0
4096
-4096
8192
0
4096
-4096
8192
0
4096
-4096
8192
0
4096
-4096
8192
0
4096
-4096
8192
0
4096
-4096
8192
0
4096
-4096
8192
0
4096
-4096
8192
0
4096
-4096
8192
0
4096
-4096
8192
0
4096
-4096
8192
0
4096
-4096
8192
0
4096
-4096
8192
0
4096
-4096
8192
0
4096
-4096
8192
0
4096
-4096
8192
0
4096
-4096
8192
0
4096
-4096
8192
0
4096
-4096
8192
0
4096
-4096
8192
0
4096
-4096
8192
0
4096
-4096
8192
0
4096
-4096
8192
0
4096
-4096
8192
0
4096
-4096
8192
0
4096
-4096
8192
0
4096
-4096
8192
0
4096
-4096
8192
0
4096
-4096
8192
0
4096
-4096
8192
0
4096
-4096
8192
0
4096
-4096
8192
0
4096
-4096
8192
0
4096
-4096
8192
0
4096
-4096
8192
0
4096
-4096
8192
0
4096
-4096
8192
0
4096
-4096
8192
0
4096
-4096
8192
0
4096
-4096
8192
0
4096
-4096
8192
0
4096
-4096
8192
0
4096
-4096
8192
0
4096
-4096
8192
0
4096
-4096
8192
0
4096
-4096
8192
0
4096
-4096
8192
0
4096
-4096
8192
0
4096
-4096
8192
0
4096
-4096
8192
0
4096
-4096
8192
0
4096
-4096
8192
0
4096
-4096
8192
0
4096
-4096
8192
0
4096
-4096
8192
0
4096
-4096
8192
0
4096
-4096
8192
0
4096
-4096
8192
0
4096
-4096
8192
0
4096
-4096
8192
0
4096
-4096
8192
0
4096
-4096
8192
0
4096
-4096
8192
0
4096
-4096
8192
0
4096
-4096
8192
0
4096
-4096
8192
0
4096
-4096
8192
0
4096
-4096
8192
0
4096
-4096
8192
0
4096
-4096
8192
0
4096
-4096
8192
0
4096
-4096
8192
0
4096
-4096
8192
0
4096
-4096
8192
0
4096
-4096
8192
0
4096
-4096
8192
0
4096
-4096
8192
0
4096
-4096
8192
0
4096
-4096
8192
0
4096
-4096
8192
0
4096
-4096
8192
0
4096
-4096
8192
0
4096
-4096
8192
0
4096
-4096
8192
0
4096
-4096
8192
0
4096
-4096
8192
0
4096
-4096
8192
0
4096
-4096
8192
0
4096
-4096
8192
0
4096
-4096
8192
0
4096
-4096
8192
0
4096
-4096
8192
0
4096
-4096
8192
0
4096
-4096
8192
0
4096
-4096
8192
0
4096
-4096
8192
0
4096
-4096
8192
0
4096
-4096
8192
0
4096
-4096
8192
0
4096
-4096
8192
0
4096
-4096
8192
0
4096
-4096
8192
0
4096
-4096
8192
0
4096
-4096
8192
0
4096
-4096
8192
0
4096
-4096
8192
0
4096
-4096
8192
0
4096
-4096
8192
0
4096
-4096
8192
0
4096
-4096
8192
0
4096
-4096
8192
0
4096
-4096
8192
0
4096
-4096
8192
0
4096
-4096
8192
0
4096
-4096
8192
0
4096
-4096
8192
0
4096
-4096
8192
0
4096
-4096
8192
0
4096
-4096
8192
0
4096
-4096
8192
0
4096
-4096
8192
0
4096
-4096
8192
0
4096
-4096
8192
0
4096
-4096
8192
0
4096
-4096
8192
0
4096
-4096
8192
0
4096
-4096
8192
0
4096
-4096
8192
0
4096
-4096
8192
0
4096
-4096
8192
0
4096
-4096
8192
0
4096
-4096
8192
0
4096
-4096
8192
0
4096
-4096
8192
0
4096
-4096
8192
0
4096
-4096
8192
0
4096
-4096
8192
0
4096
-4096
8192
0
4096
-4096
8192
0
4096
-4096
8192
0
4096
-4096
8192
0
4096
-4096
8192
0
4096
-4096
8192
0
4096
-4096
8192
0
4096
-4096
8192
0
4096
-4096
8192
0
4096
-4096
8192
0
4096
-4096
8192
0
4096
-4096
8192
0
4096
-4096
8192
0
4096
-4096
8192
0
4096
-4096
8192
0
4096
-4096
8192
0
4096
-4096
8192
0
4096
-4096
8192
0
4096
-4096
8192
0
4096
-4096
8192
0
4096
-4096
8192
0
4096
-4096
8192
0
4096
-4096
8192
0
4096
-4096
8192
0
4096
-4096
8192
0
4096
-4096
8192
0
4096
-4096
8192
0
4096
-4096
8192
0
4096
-4096
8192
0
4096
-4096
8192
0
4096
-4096
8192
0
4096
-4096
8192
0
4096
-4096
8192
0
4096
-4096
8192
0
4096
-4096
8192
0
4096
-4096
8192
0
4096
-4096
8192
0
4096
-4096
8192
0
4096
-4096
8192
0
4096
-4096
8192
0
4096
-4096
8192
0
4096
-4096
8192
0
4096
-4096
8192
0
4096
-4096
8192
0
4096
-4096
8192
0
4096
-4096
8192
0
4096
-4096
8192
0
4096
-4096
8192
0
4096
-4096
8192
0
4096
-4096
8192
0
4096
-4096
8192
0
4096
-4096
8192
0
4096
-4096
8192
0
4096
-4096
8192
0
4096
-4096
8192
0
4096
-4096
8192
0
4096
-4096
8192
0
4096
-4096
8192
0
4096
-4096
8192
0
4096
-4096
8192
0
4096
-4096
8192
0
4096
-4096
8192
0
4096
-4096
8192
0
4096
-4096
8192
0
4096
-4096
8192
0
4096
-4096
8192
0
4096
-4096
8192
0
4096
-4096
8192
0
4096
-4096
8192
0
4096
-4096
8192
0
4096
-4096
8192
0
4096
-4096
8192
0
4096
-4096
8192
0
4096
-4096
8192
0
4096
-4096
8192
0
4096
-4096
8192
0
4096
-4096
8192
0
4096
-4096
8192
0
4096
-4096
8192
0
4096
-4096
8192
0
4096
-4096
8192
0
4096
-4096
8192
0
4096
-4096
8192
0
4096
-4096
8192
0
4096
-4096
8192
0
4096
-4096
8192
0
4096
-4096
8192
0
4096
-4096
8192
0
4096
-4096
8192
0
4096
-4096
8192
0
4096
-4096
8192
0
4096
-4096
8192
0
4096
-4096
8192
0
4096
-4096
8192
0
4096
-4096
8192
0
4096
-4096
8192
0
4096
-4096
8192
0
4096
-4096
8192
0
4096
-4096
8192
0
4096
-4096
8192
0
4096
-4096
8192
0
4096
-4096
8192
0
4096
-4096
8192
0
4096
-4096
8192
0
4096
-4096
8192
0
4096
-4096
8192
0
4096
-4096
8192
0
4096
-4096
8192
0
4096
-4096
8192
0
4096
-4096
8192
0
4096
-4096
8192
0
4096
-4096
8192
0
4096
-4096
8192
0
4096
-4096
8192
0
4096
-4096
8192
0
4096
-4096
8192
0
4096
-4096
8192
0
4096
-4096
8192
0
4096
-4096
8192
0
4096
-4096
8192
0
4096
-4096
8192
0
4096
-4096
8192
0
4096
-4096
8192
0
4096
-4096
8192
0
4096
-4096
8192
0
4096
-4096
8192
0
4096
-4096
8192
0
4096
-4096
8192
0
4096
-4096
8192
0
4096
-4096
8192
0
4096
-4096
8192
0
4096
-4096
8192
0
4096
-4096
8192
0
4096
-4096
8192
0
4096
-4096
8192
0
4096
-4096
8192
0
4096
-4096
8192
0
4096
-4096
8192
0
4096
-4096
8192
0
4096
-4096
8192
0
4096
-4096
8192
0
4096
-4096
8192
0
4096
-4096
8192
0
4096
-4096
8192
0
4096
-4096
8192
0
4096
-4096
8192
0
4096
-4096
8192
0
4096
-4096
8192
0
4096
-4096
8192
0
4096
-4096
8192
0
4096
-4096
8192
0
4096
-4096
8192
0
4096
-4096
8192
0
4096
-4096
8192
0
4096
-4096
8192
0
4096
-4096
8192
0
4096
-4096
8192
0
4096
-4096
8192
0
4096
-4096
8192
0
4096
-4096
8192
0
4096
-4096
8192
0
4096
-4096
8192
0
4096
-4096
8192
0
4096
-4096
8192
0
4096
-4096
8192
0
4096
-4096
8192
0
4096
-4096
8192
0
4096
-4096
8192
0
4096
-4096
8192
0
4096
-4096
8192
0
4096
-4096
8192
0
4096
-4096
8192
0
4096
-4096
8192
0
4096
-4096
8192
0
4096
-4096
8192
0
4096
-4096
8192
0
4096
-4096
8192
0
4096
-4096
8192
0
4096
-4096
8192
0
4096
-4096
8192
0
4096
-4096
8192
0
4096
-4096
8192
0
4096
-4096
8192
0
4096
-4096
8192
0
4096
-4096
8192
0
4096
-4096
8192
0
4096
-4096
8192
0
4096
-4096
8192
0
4096
-4096
8192
0
4096
-4096
8192
0
4096
-4096
8192
0
4096
-4096
8192
0
4096
-4096
8192
0
4096
-4096
8192
0
4096
-4096
8192
0
4096
-4096
8192
0
4096
-4096
8192
0
4096
-4096
8192
0
4096
-4096
8192
0
4096
-4096
8192
0
4096
-4096
8192
0
4096
-4096
8192
0
4096
-4096
8192
0
4096
-4096
8192
0
4096
-4096
8192
0
4096
-4096
8192
0
4096
-4096
8192
0
4096
-4096
8192
0
4096
-4096
8192
0
4096
-4096
8192
0
4096
-4096
8192
0
4096
-4096
8192
0
4096
-4096
8192
0
4096
-4096
8192
0
4096
-4096
8192
0
4096
-4096
8192
0
4096
-4096
8192
0
4096
-4096
8192
0
4096
-4096
8192
0
4096
-4096
8192
0
4096
-4096
8192
0
4096
-4096
8192
0
4096
-4096
8192
0
4096
-4096
8192
0
4096
-4096
8192
0
4096
-4096
8192
0
4096
-4096
8192
0
4096
-4096
8192
0
4096
-4096
8192
0
4096
-4096
8192
0
4096
-4096
8192
0
4096
-4096
8192
0
4096
-4096
8192
0
4096
-4096
8192
0
4096
-4096
8192
0
4096
-4096
8192
0
4096
-4096
8192
0
4096
-4096
8192
0
4096
-4096
8192
0
4096
-4096
8192
0
4096
-4096
8192
0
4096
-4096
8192
0
4096
-4096
8192
0
4096
-4096
8192
0
4096
-4096
8192
0
4096
-4096
8192
0
4096
-4096
8192
0
4096
-4096
8192
0
4096
-4096
8192
0
4096
-4096
8192
0
4096
-4096
8192
0
4096
-4096
8192
0
4096
-4096
8192
0
4096
-4096
8192
0
4096
-4096
8192
0
4096
-4096
8192
0
4096
-4096
8192
0
4096
-4096
8192
0
4096
-4096
8192
0
4096
-4096
8192
0
4096
-4096
8192
0
4096
-4096
8192
0
4096
-4096
8192
0
4096
-4096
8192
0
4096
-4096
8192
0
4096
-4096
8192
0
4096
-4096
8192
0
4096
-4096
8192
0
4096
-4096
8192
0
4096
-4096
8192
0
4096
-4096
8192
0
4096
-4096
8192
0
4096
-4096
8192
0
4096
-4096
8192
0
4096
-4096
8192
0
4096
-4096
8192
0
4096
-4096
8192
0
4096
-4096
8192
0
4096
-4096
8192
0
4096
-4096
8192
0
4096
-4096
8192
0
4096
-4096
8192
0
4096
-4096
8192
0
4096
-4096
8192
0
4096
-4096
8192
0
4096
-4096
8192
0
4096
-4096
8192
0
4096
-4096
8192
0
4096
-4096
8192
0
4096
-4096
8192
0
4096
-4096
8192
0
4096
-4096
8192
0
4096
-4096
8192
0
4096
-4096
8192
0
4096
-4096
8192
0
4096
-4096
8192
0
4096
-4096
8192
0
4096
-4096
8192
0
4096
-4096
8192
0
4096
-4096
8192
0
4096
-4096
8192
0
4096
-4096
8192
0
4096
-4096
8192
0
4096
-4096
8192
0
4096
-4096
8192
0
4096
-4096
8192
0
4096
-4096
8192
0
4096
-4096
8192
0
4096
-4096
8192
0
4096
-4096
8192
0
4096
-4096
8192
0
4096
-4096
8192
0
4096
-4096
8192
0
4096
-4096
8192
0
4096
-4096
8192
0
4096
-4096
8192
0
4096
-4096
8192
0
4096
-4096
8192
0
4096
-4096
8192
0
4096
-4096
8192
0
4096
-4096
8192
0
4096
-4096
8192
0
4096
-4096
8192
0
4096
-4096
8192
0
4096
-4096
8192
0
4096
-4096
8192
0
4096
-4096
8192
0
4096
-4096
8192
0
4096
-4096
8192
0
4096
-4096
8192
0
4096
-4096
8192
0
4096
-4096
8192
0
4096
-4096
8192
0
4096
-4096
8192
0
4096
-4096
8192
0
4096
-4096
8192
0
4096
-4096
8192
0
4096
-4096
8192
0
4096
-4096
8192
0
4096
-4096
8192
0
4096
-4096
8192
0
4096
-4096
8192
0
4096
-4096
8192
0
4096
-4096
8192
0
4096
-4096
8192
0
4096
-4096
8192
0
4096
-4096
8192
0
4096
-4096
8192
0
4096
-4096
8192
0
4096
-4096
8192
0
4096
-4096
8192
0
4096
-4096
8192
0
4096
-4096
8192
0
4096
-4096
8192
0
4096
-4096
8192
0
4096
-4096
8192
0
4096
-4096
8192
0
4096
-4096
8192
0
4096
-4096
8192
0
4096
-4096
8192
0
4096
-4096
8192
0
4096
-4096
8192
0
4096
-4096
8192
0
4096
-4096
8192
0
4096
-4096
8192
0
4096
-4096
8192
0
4096
-4096
8192
0
4096
-4096
8192
0
4096
-4096
8192
0
4096
-4096
8192
0
4096
-4096
8192
0
4096
-4096
8192
0
4096
-4096
8192
0
4096
-4096
8192
0
4096
-4096
8192
0
4096
-4096
8192
0
4096
-4096
8192
0
4096
-4096
8192
0
4096
-4096
8192
0
4096
-4096
8192
0
4096
-4096
8192
0
4096
-4096
8192
0
4096
-4096
8192
0
4096
-4096
8192
0
4096
-4096
8192
0
4096
-4096
8192
0
4096
-4096
8192
0
4096
-4096
8192
0
4096
-4096
8192
0
4096
-4096
8192
0
4096
-4096
8192
0
4096
-4096
8192
0
4096
-4096
8192
0
4096
-4096
8192
0
4096
-4096
8192
0
4096
-4096
8192
0
4096
-4096
8192
0
4096
-4096
8192
0
4096
-4096
8192
0
4096
-4096
8192
0
4096
-4096
8192
0
4096
-4096
8192
0
4096
-4096
8192
0
4096
-4096
8192
0
4096
-4096
8192
0
4096
-4096
8192
0
4096
-4096
8192
0
4096
-4096
8192
0
4096
-4096
8192
0
4096
-4096
8192
0
4096
-4096
8192
0
4096
-4096
8192
0
4096
-4096
8192
0
4096
-4096
8192
0
4096
-4096
8192
0
4096
-4096
8192
0
4096
-4096
8192
0
4096
-4096
8192
0
4096
-4096
8192
0
4096
-4096
8192
0
4096
-4096
8192
0
4096
-4096
8192
0
4096
-4096
8192
0
4096
-4096
8192
0
4096
-4096
8192
0
4096
-4096
8192
0
4096
-4096
8192
0
4096
-4096
8192
0
4096
-4096
8192
0
4096
-4096
8192
0
4096
-4096
8192
0
4096
-4096
8192
0
4096
-4096
8192
0
4096
-4096
8192
0
4096
-4096
8192
0
4096
-4096
8192
0
4096
-4096
8192
0
4096
-4096
8192
0
4096
-4096
8192
0
4096
-4096
8192
0
4096
-4096
8192
0
4096
-4096
8192
0
4096
-4096
8192
0
4096
-4096
8192
0
4096
-4096
8192
0
4096
-4096
8192
0
4096
-4096
8192
0
4096
-4096
8192
0
4096
-4096
8192
0
4096
-4096
8192
0
4096
-4096
8192
0
4096
-4096
8192
0
4096
-4096
8192
0
4096
-4096
8192
0
4096
-4096
8192
0
4096
-4096
8192
0
4096
-4096
8192
0
4096
-4096
8192
0
4096
-4096
8192
0
4096
-4096
8192
0
4096
-4096
8192
0
4096
-4096
8192
0
4096
-4096
8192
0
4096
-4096
8192
0
4096
-4096
8192
0
4096
-4096
8192
0
4096
-4096
8192
0
4096
-4096
8192
0
4096
-4096
8192
0
4096
-4096
8192
0
4096
-4096
8192
0
4096
-4096
8192
0
4096
-4096
8192
0
4096
-4096
8192
0
4096
-4096
8192
0
4096
-4096
8192
0
4096
-4096
8192
0
4096
-4096
8192
0
4096
-4096
8192
0
4096
-4096
8192
0
4096
-4096
8192
0
4096
-4096
8192
0
4096
-4096
8192
0
4096
-4096
8192
0
4096
-4096
8192
0
4096
-4096
8192
0
4096
-4096
8192
0
4096
-4096
8192
0
4096
-4096
8192
0
4096
-4096
8192
0
4096
-4096
8192
0
4096
-4096
8192
0
4096
-4096
8192
0
4096
-4096
8192
0
4096
-4096
8192
0
4096
-4096
8192
0
4096
-4096
8192
0
4096
-4096
8192
0
4096
-4096
8192
0
4096
-4096
8192
0
4096
-4096
8192
0
4096
-4096
8192
0
4096
-4096
8192
0
4096
-4096
8192
0
4096
-4096
8192
0
4096
-4096
8192
0
4096
-4096
8192
0
4096
-4096
8192
0
4096
-4096
8192
0
4096
-4096
8192
0
4096
-4096
8192
0
4096
-4096
8192
0
4096
-4096
8192
0
4096
-4096
8192
0
4096
-4096
8192
0
4096
-4096
8192
0
4096
-4096
8192
0
4096
-4096
8192
0
4096
-4096
8192
0
4096
-4096
8192
0
4096
-4096
8192
0
4096
-4096
8192
0
4096
-4096
8192
0
4096
-4096
8192
0
4096
-4096
8192
0
4096
-4096
8192
0
4096
-4096
8192
0
4096
-4096
8192
0
4096
-4096
8192
0
4096
-4096
8192
0
4096
-4096
8192
0
4096
-4096
8192
0
4096
-4096
8192
0
4096
-4096
8192
0
4096
-4096
8192
0
4096
-4096
8192
0
4096
-4096
8192
0
4096
-4096
8192
0
4096
-4096
8192
0
4096
-4096
8192
0
4096
-4096
8192
0
4096
-4096
8192
0
4096
-4096
8192
0
4096
-4096
8192
0
4096
-4096
8192
0
4096
-4096
8192
0
4096
-4096
8192
0
4096
-4096
8192
0
4096
-4096
8192
0
4096
-4096
8192
0
4096
-4096
8192
0
4096
-4096
8192
0
4096
-4096
8192
0
4096
-4096
8192
0
4096
-4096
8192
0
4096
-4096
8192
0
4096
-4096
8192
0
4096
-4096
8192
0
4096
-4096
8192
0
4096
-4096
8192
0
4096
-4096
8192
0
4096
-4096
8192
0
4096
-4096
8192
0
4096
-4096
8192
0
4096
-4096
8192
0
4096
-4096
8192
0
4096
-4096
8192
0
4096
-4096
8192
0
4096
-4096
8192
0
4096
-4096
8192
0
4096
-4096
8192
0
4096
-4096
8192
0
4096
-4096
8192
0
4096
-4096
8192
0
4096
-4096
8192
0
4096
-4096
8192
0
4096
-4096
8192
0
4096
-4096
8192
0
4096
-4096
8192
0
4096
-4096
8192
0
4096
-4096
8192
0
4096
-4096
8192
0
4096
-4096
8192
0
4096
-4096
8192
0
4096
-4096
8192
0
4096
-4096
8192
0
4096
-4096
8192
0
4096
-4096
8192
0
4096
-4096
8192
0
4096
-4096
8192
0
4096
-4096
8192
0
4096
-4096
8192
0
4096
-4096
8192
0
4096
-4096
8192
0
4096
-4096
8192
0
4096
-4096
8192
0
4096
-4096
8192
0
4096
-4096
8192
0
4096
-4096
8192
0
4096
-4096
8192
0
4096
-4096
8192
0
4096
-4096
8192
0
4096
-4096
8192
0
4096
-4096
8192
0
4096
-4096
8192
0
4096
-4096
8192
0
4096
-4096
8192
0
4096
-4096
8192
0
4096
-4096
8192
0
4096
-4096
8192
0
4096
-4096
8192
0
4096
-4096
8192
0
4096
-4096
8192
0
4096
-4096
8192
0
4096
-4096
8192
0
4096
-4096
8192
0
4096
-4096
8192
0
4096
-4096
8192
0
4096
-4096
8192
0
4096
-4096
8192
0
4096
-4096
8192
0
4096
-4096
8192
0
4096
-4096
8192
0
4096
-4096
8192
0
4096
-4096
8192
0
4096
-4096
8192
0
4096
-4096
8192
0
4096
-4096
8192
0
4096
-4096
8192
0
4096
-4096
8192
0
4096
-4096
8192
0
4096
-4096
8192
0
4096
-4096
8192
0
4096
-4096
8192
0
4096
-4096
8192
0
4096
-4096
8192
0
4096
-4096
8192
0
4096
-4096
8192
0
4096
-4096
8192
0
4096
-4096
8192
0
4096
-4096
8192
0
4096
-4096
8192
0
4096
-4096
8192
0
4096
-4096
8192
0
4096
-4096
8192
0
4096
-4096
8192
0
4096
-4096
8192
0
4096
-4096
8192
0
4096
-4096
8192
0
4096
-4096
8192
0
4096
-4096
8192
0
4096
-4096
8192
0
4096
-4096
8192
0
4096
-4096
8192
0
4096
-4096
8192
0
4096
-4096
8192
0
4096
-4096
8192
0
4096
-4096
8192
0
4096
-4096
8192
0
4096
-4096
8192
0
4096
-4096
8192
0
4096
-4096
8192
0
4096
-4096
8192
0
4096
-4096
8192
0
4096
-4096
8192
0
4096
-4096
8192
0
4096
-4096
8192
0
4096
-4096
8192
0
4096
-4096
8192
0
4096
-4096
8192
0
4096
-4096
8192
0
4096
-4096
8192
0
4096
-4096
8192
0
4096
-4096
8192
0
4096
-4096
8192
0
4096
-4096
8192
0
4096
-4096
8192
0
4096
-4096
8192
0
4096
-4096
8192
0
4096
-4096
8192
0
4096
-4096
8192
0
4096
-4096
8192
0
4096
-4096
8192
0
4096
-4096
8192
0
4096
-4096
8192
0
4096
-4096
8192
0
4096
-4096
8192
0
4096
-4096
8192
0
4096
-4096
8192
0
4096
-4096
8192
0
4096
-4096
8192
0
4096
-4096
8192
0
4096
-4096
8192
0
4096
-4096
8192
0
4096
-4096
8192
0
4096
-4096
8192
0
4096
-4096
8192
0
4096
-4096
8192
0
4096
-4096
8192
0
4096
-4096
8192
0
4096
-4096
8192
0
4096
-4096
8192
0
4096
-4096
8192
0
4096
-4096
8192
0
4096
-4096
8192
0
4096
-4096
8192
0
4096
-4096
8192
0
4096
-4096
8192
0
4096
-4096
8192
0
4096
-4096
8192
0
4096
-4096
8192
0
4096
-4096
8192
0
4096
-4096
8192
0
4096
-4096
8192
0
4096
-4096
8192
0
4096
-4096
8192
0
4096
-4096
8192
0
4096
-4096
8192
0
4096
-4096
8192
0
4096
-4096
8192
0
4096
-4096
8192
0
4096
-4096
8192
0
4096
-4096
8192
0
4096
-4096
8192
0
4096
-4096
8192
0
4096
-4096
8192
0
4096
-4096
8192
0
4096
-4096
8192
0
4096
-4096
8192
0
4096
-4096
8192
0
4096
-4096
8192
0
4096
-4096
8192
0
4096
-4096
8192
0
4096
-4096
8192
0
4096
-4096
8192
0
4096
-4096
8192
0
4096
-4096
8192
0
4096
-4096
8192
0
4096
-4096
8192
0
4096
-4096
8192
0
4096
-4096
8192
0
4096
-4096
8192
0
4096
-4096
8192
0
4096
-4096
8192
0
4096
-4096
8192
0
4096
-4096
8192
0
4096
-4096
8192
0
4096
-4096
8192
0
4096
-4096
8192
0
4096
-4096
8192
0
4096
-4096
8192
0
4096
-4096
8192
0
4096
-4096
8192
0
4096
-4096
8192
0
4096
-4096
8192
0
4096
-4096
8192
0
4096
-4096
8192
0
4096
-4096
8192
0
4096
-4096
8192
0
4096
-4096
8192
0
4096
-4096
8192
0
4096
-4096
8192
0
4096
-4096
8192
0
4096
-4096
8192
0
4096
-4096
8192
0
4096
-4096
8192
0
4096
-4096
8192
0
4096
-4096
8192
0
4096
-4096
8192
0
4096
-4096
8192
0
4096
-4096
8192
0
4096
-4096
8192
0
4096
-4096
8192
0
4096
-4096
8192
0
4096
-4096
8192
0
4096
-4096
8192
0
4096
-4096
8192
0
4096
-4096
8192
0
4096
-4096
8192
0
4096
-4096
8192
0
4096
-4096
8192
0
4096
-4096
8192
0
4096
-4096
8192
0
4096
-4096
8192
0
4096
-4096
8192
0
4096
-4096
8192
0
4096
-4096
8192
0
4096
-4096
8192
0
4096
-4096
8192
0
4096
-4096
8192
0
4096
-4096
8192
0
4096
-4096
8192
0
4096
-4096
8192
0
4096
-4096
8192
0
4096
-4096
8192
0
4096
-4096
8192
0
4096
-4096
8192
0
4096
-4096
8192
0
4096
-4096
8192
0
4096
-4096
8192
0
4096
-4096
8192
0
4096
-4096
8192
0
4096
-4096
8192
0
4096
-4096
8192
0
4096
-4096
8192
0
4096
-4096
8192
0
4096
-4096
8192
0
4096
-4096
8192
0
4096
-4096
8192
0
4096
-4096
8192
0
4096
-4096
8192
0
4096
-4096
8192
0
4096
-4096
8192
0
4096
-4096
8192
0
4096
-4096
8192
0
4096
-4096
8192
0
4096
-4096
8192
0
4096
-4096
8192
0
4096
-4096
8192
0
4096
-4096
8192
0
4096
-4096
8192
0
4096
-4096
8192
0
4096
-4096
8192
0
4096
-4096
8192
0
4096
-4096
8192
0
4096
-4096
8192
0
4096
-4096
8192
0
4096
-4096
8192
0
4096
-4096
8192
0
4096
-4096
8192
0
4096
-4096
8192
0
4096
-4096
8192
0
4096
-4096
8192
0
4096
-4096
8192
0
4096
-4096
8192
0
4096
-4096
8192
0
4096
-4096
8192
0
4096
-4096
8192
0
4096
-4096
8192
0
4096
-4096
8192
0
4096
-4096
8192
0
4096
-4096
8192
0
4096
-4096
8192
0
4096
-4096
8192
0
4096
-4096
8192
0
4096
-4096
8192
0
4096
-4096
8192
0
4096
-4096
8192
0
4096
-4096
8192
0
4096
-4096
8192
0
4096
-4096
8192
0
4096
-4096
8192
0
4096
-4096
8192
0
4096
-4096
8192
0
4096
-4096
8192
0
4096
-4096
8192
0
4096
-4096
8192
0
4096
-4096
8192
0
4096
-4096
8192
0
4096
-4096
8192
0
4096
-4096
8192
0
4096
-4096
8192
0
4096
-4096
8192
0
4096
-4096
8192
0
4096
-4096
8192
0
4096
-4096
8192
0
4096
-4096
8192
0
4096
-4096
8192
0
4096
-4096
8192
0
4096
-4096
8192
0
4096
-4096
8192
0
4096
-4096
8192
0
4096
-4096
8192
0
4096
-4096
8192
0
4096
-4096
8192
0
4096
-4096
8192
0
4096
-4096
8192
0
4096
-4096
8192
0
4096
-4096
8192
0
4096
-4096
8192
0
4096
-4096
8192
0
4096
-4096
8192
0
4096
-4096
8192
0
4096
-4096
8192
0
4096
-4096
8192
0
4096
-4096
8192
0
4096
-4096
8192
0
4096
-4096
8192
0
4096
-4096
8192
0
4096
-4096
8192
0
4096
-4096
8192
0
4096
-4096
8192
0
4096
-4096
8192
0
4096
-4096
8192
0
4096
-4096
8192
0
4096
-4096
8192
0
4096
-4096
8192
0
4096
-4096
8192
0
4096
-4096
8192
0
4096
-4096
8192
0
4096
-4096
8192
0
4096
-4096
8192
0
4096
-4096
8192
0
4096
-4096
8192
0
4096
-4096
8192
0
4096
-4096
8192
0
4096
-4096
8192
0
4096
-4096
8192
0
4096
-4096
8192
0
4096
-4096
8192
0
4096
-4096
8192
0
4096
-4096
8192
0
4096
-4096
8192
0
4096
-4096
8192
0
4096
-4096
8192
0
4096
-4096
8192
0
4096
-4096
8192
0
4096
-4096
8192
0
4096
-4096
8192
0
4096
-4096
8192
0
4096
-4096
8192
0
4096
-4096
8192
0
4096
-4096
8192
0
4096
-4096
8192
0
4096
-4096
8192
0
4096
-4096
8192
0
4096
-4096
8192
0
4096
-4096
8192
0
4096
-4096
8192
0
4096
-4096
8192
0
4096
-4096
8192
0
4096
-4096
8192
0
4096
-4096
8192
0
4096
-4096
8192
0
4096
-4096
8192
0
4096
-4096
8192
0
4096
-4096
8192
0
4096
-4096
8192
0
4096
-4096
8192
0
4096
-4096
8192
0
4096
-4096
8192
0
4096
-4096
8192
0
4096
-4096
8192
0
4096
-4096
8192
0
4096
-4096
8192
0
4096
-4096
8192
0
4096
-4096
8192
0
4096
-4096
8192
0
4096
-4096
8192
0
4096
-4096
8192
0
4096
-4096
8192
0
4096
-4096
8192
0
4096
-4096
8192
0
4096
-4096
8192
0
4096
-4096
8192
0
4096
-4096
8192
0
4096
-4096
8192
0
4096
-4096
8192
0
4096
-4096
8192
0
4096
-4096
8192
0
4096
-4096
8192
0
4096
-4096
8192
0
4096
-4096
8192
0
4096
-4096
8192
0
4096
-4096
8192
0
4096
-4096
8192
0
4096
-4096
8192
0
4096
-4096
8192
0
4096
-4096
8192
0
4096
-4096
8192
0
4096
-4096
8192
0
4096
-4096
8192
0
4096
-4096
8192
0
4096
-4096
8192
0
4096
-4096
8192
0
4096
-4096
8192
0
4096
-4096
8192
0
4096
-4096
8192
0
4096
-4096
8192
0
4096
-4096
8192
0
4096
-4096
8192
0
4096
-4096
8192
0
4096
-4096
8192
0
4096
-4096
8192
0
4096
-4096
8192
0
4096
-4096
8192
0
4096
-4096
8192
0
4096
-4096
8192
0
4096
-4096
8192
0
4096
-4096
8192
0
4096
-4096
8192
0
4096
-4096
8192
0
4096
-4096
8192
0
4096
-4096
8192
0
4096
-4096
8192
0
4096
-4096
8192
0
4096
-4096
8192
0
4096
-4096
8192
0
4096
-4096
8192
0
4096
-4096
8192
0
4096
-4096
8192
0
4096
-4096
8192
0
4096
-4096
8192
0
4096
-4096
8192
0
4096
-4096
8192
0
4096
-4096
8192
0
4096
-4096
8192
0
4096
-4096
8192
0
4096
-4096
8192
0
4096
-4096
8192
0
4096
-4096
8192
0
4096
-4096
8192
0
4096
-4096
8192
0
4096
-4096
8192
0
4096
-4096
8192
0
4096
-4096
8192
0
4096
-4096
8192
0
4096
-4096
8192
0
4096
-4096
8192
0
4096
-4096
8192
0
4096
-4096
8192
0
4096
-4096
8192
0
4096
-4096
8192
0
4096
-4096
8192
0
4096
-4096
8192
0
4096
-4096
8192
0
4096
-4096
8192
0
4096
-4096
8192
0
4096
-4096
8192
0
4096
-4096
8192
0
4096
-4096
8192
0
4096
-4096
8192
0
4096
-4096
8192
0
4096
-4096
8192
0
4096
-4096
8192
0
4096
-4096
8192
0
4096
-4096
8192
0
4096
-4096
8192
0
4096
-4096
8192
0
4096
-4096
8192
0
4096
-4096
8192
0
4096
-4096
8192
0
4096
-4096
8192
0
4096
-4096
8192
0
4096
-4096
8192
0
4096
-4096
8192
0
4096
-4096
8192
0
4096
-4096
8192
0
4096
-4096
8192
0
4096
-4096
8192
0
4096
-4096
8192
0
4096
-4096
8192
0
4096
-4096
8192
0
4096
-4096
8192
0
4096
-4096
8192
0
4096
-4096
8192
0
4096
-4096
8192
0
4096
-4096
8192
0
4096
-4096
8192
0
4096
-4096
8192
0
4096
-4096
8192
0
4096
-4096
8192
0
4096
-4096
8192
0
4096
-4096
8192
0
4096
-4096
8192
0
4096
-4096
8192
0
4096
-4096
8192
0
4096
-4096
8192
0
4096
-4096
8192
0
4096
-4096
8192
0
4096
-4096
8192
0
4096
-4096
8192
0
4096
-4096
8192
0
4096
-4096
8192
0
4096
-4096
8192
0
4096
-4096
8192
0
4096
-4096
8192
0
4096
-4096
8192
0
4096
-4096
8192
0
4096
-4096
8192
0
4096
-4096
8192
0
4096
-4096
8192
0
4096
-4096
8192
0
4096
-4096
8192
0
4096
-4096
8192
0
4096
-4096
8192
0
4096
-4096
8192
0
4096
-4096
8192
0
4096
-4096
8192
0
4096
-4096
8192
0
4096
-4096
8192
0
4096
-4096
8192
0
4096
-4096
8192
0
4096
-4096
8192
0
4096
-4096
8192
0
4096
-4096
8192
0
4096
-4096
8192
0
4096
-4096
8192
0
4096
-4096
8192
0
4096
-4096
8192
0
4096
-4096
8192
0
4096
-4096
8192
0
4096
-4096
8192
0
4096
-4096
8192
0
4096
-4096
8192
0
4096
-4096
8192
0
4096
-4096
8192
0
4096
-4096
8192
0
4096
-4096
8192
0
4096
-4096
8192
0
4096
-4096
8192
0
4096
-4096
8192
0
4096
-4096
8192
0
4096
-4096
8192
0
4096
-4096
8192
0
4096
-4096
8192
0
4096
-4096
8192
0
4096
-4096
8192
0
4096
-4096
8192
0
4096
-4096
8192
0
4096
-4096
8192
0
4096
-4096
8192
0
4096
-4096
8192
0
4096
-4096
8192
0
4096
-4096
8192
0
4096
-4096
8192
0
4096
-4096
8192
0
4096
-4096
8192
0
4096
-4096
8192
0
4096
-4096
8192
0
4096
-4096
8192
0
4096
-4096
8192
0
4096
-4096
8192
0
4096
-4096
8192
0
4096
-4096
8192
0
4096
-4096
8192
0
4096
-4096
8192
0
4096
-4096
8192
0
4096
-4096
8192
0
4096
-4096
8192
0
4096
-4096
8192
0
4096
-4096
8192
0
4096
-4096
8192
0
4096
-4096
8192
0
4096
-4096
8192
0
4096
-4096
8192
0
4096
-4096
8192
0
4096
-4096
8192
0
4096
-4096
8192
0
4096
-4096
8192
0
4096
-4096
8192
0
4096
-4096
8192
0
4096
-4096
8192
0
4096
-4096
8192
0
4096
-4096
8192
0
4096
-4096
8192
0
4096
-4096
8192
0
4096
-4096
8192
0
4096
-4096
8192
0
4096
-4096
8192
0
4096
-4096
8192
0
4096
-4096
8192
0
4096
-4096
8192
0
4096
-4096
8192
0
4096
-4096
8192
0
4096
-4096
8192
0
4096
-4096
8192
0
4096
-4096
8192
0
4096
-4096
8192
0
4096
-4096
8192
0
4096
-4096
8192
0
4096
-4096
8192
0
4096
-4096
8192
0
4096
-4096
8192
0
4096
-4096
8192
0
4096
-4096
8192
0
4096
-4096
8192
0
4096
-4096
8192
0
4096
-4096
8192
0
4096
-4096
8192
0
4096
-4096
8192
0
4096
-4096
8192
0
4096
-4096
8192
0
4096
-4096
8192
0
4096
-4096
8192
0
4096
-4096
8192
0
4096
-4096
8192
0
4096
-4096
8192
0
4096
-4096
8192
0
4096
-4096
8192
0
4096
-4096
8192
0
4096
-4096
8192
0
4096
-4096
8192
0
4096
-4096
8192
0
4096
-4096
8192
0
4096
-4096
8192
0
4096
-4096
8192
0
4096
-4096
8192
0
4096
-4096
8192
0
4096
-4096
8192
0
4096
-4096
8192
0
4096
-4096
8192
0
4096
-4096
8192
0
4096
-4096
8192
0
4096
-4096
8192
0
4096
-4096
8192
0
4096
-4096
8192
0
4096
-4096
8192
0
4096
-4096
8192
0
4096
-4096
8192
0
4096
-4096
8192
0
4096
-4096
8192
0
4096
-4096
8192
0
4096
-4096
8192
0
4096
-4096
8192
0
4096
-4096
8192
0
4096
-4096
8192
0
4096
-4096
8192
0
4096
-4096
8192
0
4096
-4096
8192
0
4096
-4096
8192
0
4096
-4096
8192
0
4096
-4096
8192
0
4096
-4096
8192
0
4096
-4096
8192
0
4096
-4096
8192
0
4096
-4096
8192
0
4096
-4096
8192
0
4096
-4096
8192
0
4096
-4096
8192
0
4096
-4096
8192
0
4096
-4096
8192
0
4096
-4096
8192
0
4096
-4096
8192
0
4096
-4096
8192
0
4096
-4096
8192
0
4096
-4096
8192
0
4096
-4096
8192
0
4096
-4096
8192
0
4096
-4096
8192
0
4096
-4096
8192
0
4096
-4096
8192
0
4096
-4096
8192
0
4096
-4096
8192
0
4096
-4096
8192
0
4096
-4096
8192
0
4096
-4096
8192
0
4096
-4096
8192
0
4096
-4096
8192
0
4096
-4096
8192
0
4096
-4096
8192
0
4096
-4096
8192
0
4096
-4096
8192
0
4096
-4096
8192
0
4096
-4096
8192
0
4096
-4096
8192
0
4096
-4096
8192
0
4096
-4096
8192
0
4096
-4096
8192
0
4096
-4096
8192
0
4096
-4096
8192
0
4096
-4096
8192
0
4096
-4096
8192
0
4096
-4096
8192
0
4096
-4096
8192
0
4096
-4096
8192
0
4096
-4096
8192
0
4096
-4096
8192
0
4096
-4096
8192
0
4096
-4096
8192
0
4096
-4096
8192
0
4096
-4096
8192
0
4096
-4096
8192
0
4096
-4096
8192
0
4096
-4096
8192
0
4096
-4096
8192
0
4096
-4096
8192
0
4096
-4096
8192
0
4096
-4096
8192
0
4096
-4096
8192
0
4096
-4096
8192
0
4096
-4096
8192
0
4096
-4096
8192
0
4096
-4096
8192
0
4096
-4096
8192
0
4096
-4096
8192
0
4096
-4096
8192
0
4096
-4096
8192
0
4096
-4096
8192
0
4096
-4096
8192
0
4096
-4096
8192
0
4096
-4096
8192
0
4096
-4096
8192
0
4096
-4096
8192
0
4096
-4096
8192
0
4096
-4096
8192
0
4096
-4096
8192
0
4096
-4096
8192
0
4096
-4096
8192
0
4096
-4096
8192
0
4096
-4096
8192
0
4096
-4096
8192
0
4096
-4096
8192
0
4096
-4096
8192
0
4096
-4096
8192
0
4096
-4096
8192
0
4096
-4096
8192
0
4096
-4096
8192
0
4096
-4096
8192
0
4096
-4096
8192
0
4096
-4096
8192
0
4096
-4096
8192
0
4096
-4096
8192
0
4096
-4096
8192
0
4096
-4096
8192
0
4096
-4096
8192
0
4096
-4096
8192
0
4096
-4096
8192
0
4096
-4096
8192
0
4096
-4096
8192
0
4096
-4096
8192
0
4096
-4096
8192
0
4096
-4096
8192
0
4096
-4096
8192
0
4096
-4096
8192
0
4096
-4096
8192
0
4096
-4096
8192
0
4096
-4096
8192
0
4096
-4096
8192
0
4096
-4096
8192
0
4096
-4096
8192
0
4096
-4096
8192
0
4096
-4096
8192
0
4096
-4096
8192
0
4096
-4096
8192
0
4096
-4096
8192
0
4096
-4096
8192
0
4096
-4096
8192
0
4096
-4096
8192
0
4096
-4096
8192
0
4096
-4096
8192
0
4096
-4096
8192
0
4096
-4096
8192
0
4096
-4096
8192
0
4096
-4096
8192
0
4096
-4096
8192
0
4096
-4096
8192
0
4096
-4096
8192
0
4096
-4096
8192
0
4096
-4096
8192
0
4096
-4096
8192
0
4096
-4096
8192
0
4096
-4096
8192
0
4096
-4096
8192
0
4096
-4096
8192
0
4096
-4096
8192
0
4096
-4096
8192
0
4096
-4096
8192
0
4096
-4096
8192
0
4096
-4096
8192
0
4096
-4096
8192
0
4096
-4096
8192
0
4096
-4096
8192
0
4096
-4096
8192
0
4096
-4096
8192
0
4096
-4096
8192
0
4096
-4096
8192
0
4096
-4096
8192
0
4096
-4096
8192
0
4096
-4096
8192
0
4096
-4096
8192
0
4096
-4096
8192
0
4096
-4096
8192
0
4096
-4096
8192
0
4096
-4096
8192
0
4096
-4096
8192
0
4096
-4096
8192
0
4096
-4096
8192
0
4096
-4096
8192
0
4096
-4096
8192
0
4096
-4096
8192
0
4096
-4096
8192
0
4096
-4096
8192
0
4096
-4096
8192
0
4096
-4096
8192
0
4096
-4096
8192
0
4096
-4096
8192
0
4096
-4096
8192
0
4096
-4096
8192
0
4096
-4096
8192
0
4096
-4096
8192
0
4096
-4096
8192
0
4096
-4096
8192
0
4096
-4096
8192
0
4096
-4096
8192
0
4096
-4096
8192
0
4096
-4096
8192
0
4096
-4096
8192
0
4096
-4096
8192
0
4096
-4096
8192
0
4096
-4096
8192
0
4096
-4096
8192
0
4096
-4096
8192
0
4096
-4096
8192
0
4096
-4096
8192
0
4096
-4096
8192
0
4096
-4096
8192
0
4096
-4096
8192
0
4096
-4096
8192
0
4096
-4096
8192
0
4096
-4096
8192
0
4096
-4096
8192
0
4096
-4096
8192
0
4096
-4096
8192
0
4096
-4096
8192
0
4096
-4096
8192
0
4096
-4096
8192
0
4096
-4096
8192
0
4096
-4096
8192
0
4096
-4096
8192
0
4096
-4096
8192
0
4096
-4096
8192
0
4096
-4096
8192
0
4096
-4096
8192
0
4096
-4096
8192
0
4096
-4096
8192
0
4096
-4096
8192
0
4096
-4096
8192
0
4096
-4096
8192
0
4096
-4096
8192
0
4096
-4096
8192
0
4096
-4096
8192
0
4096
-4096
8192
0
4096
-4096
8192
0
4096
-4096
8192
0
4096
-4096
8192
0
4096
-4096
8192
0
4096
-4096
8192
0
4096
-4096
8192
0
4096
-4096
8192
0
4096
-4096
8192
0
4096
-4096
8192
0
4096
-4096
8192
0
4096
-4096
8192
0
4096
-4096
8192
0
4096
-4096
8192
0
4096
-4096
8192
0
4096
-4096
8192
0
4096
-4096
8192
0
4096
-4096
8192
0
4096
-4096
8192
0
4096
-4096
8192
0
4096
-4096
8192
0
4096
-4096
8192
0
4096
-4096
8192
0
4096
-4096
8192
0
4096
-4096
8192
0
4096
-4096
8192
0
4096
-4096
8192
0
4096
-4096
8192
0
4096
-4096
8192
0
4096
-4096
8192
0
4096
-4096
8192
0
4096
-4096
8192
0
4096
-4096
8192
0
4096
-4096
8192
0
4096
-4096
8192
0
4096
-4096
8192
0
4096
-4096
8192
0
4096
-4096
8192
0
4096
-4096
8192
0
4096
-4096
8192
0
4096
-4096
8192
0
4096
-4096
8192
0
4096
-4096
8192
0
4096
-4096
8192
0
4096
-4096
8192
0
4096
-4096
8192
0
4096
-4096
8192
0
4096
-4096
8192
0
4096
-4096
8192
0
4096
-4096
8192
0
4096
-4096
8192
0
4096
-4096
8192
0
4096
-4096
8192
0
4096
-4096
8192
0
4096
-4096
8192
0
4096
-4096
8192
0
4096
-4096
8192
0
4096
-4096
8192
0
4096
-4096
8192
0
4096
-4096
8192
0
4096
-4096
8192
0
4096
-4096
8192
0
4096
-4096
8192
0
4096
-4096
8192
0
4096
-4096
8192
0
4096
-4096
8192
0
4096
-4096
8192
0
4096
-4096
8192
0
4096
-4096
8192
0
4096
-4096
8192
0
4096
-4096
8192
0
4096
-4096
8192
0
4096
-4096
8192
0
4096
-4096
8192
0
4096
-4096
8192
0
4096
-4096
8192
0
4096
-4096
8192
0
4096
-4096
8192
0
4096
-4096
8192
0
4096
-4096
8192
0
4096
-4096
8192
0
4096
-4096
8192
0
4096
-4096
8192
0
4096
-4096
8192
0
4096
-4096
8192
0
4096
-4096
8192
0
4096
-4096
8192
0
4096
-4096
8192
0
4096
-4096
8192
0
4096
-4096
8192
0
4096
-4096
8192
0
4096
-4096
8192
0
4096
-4096
8192
0
4096
-4096
8192
0
4096
-4096
8192
0
4096
-4096
8192
0
4096
-4096
8192
0
4096
-4096
8192
0
4096
-4096
8192
0
4096
-4096
8192
0
4096
-4096
8192
0
4096
-4096
8192
0
4096
-4096
8192
0
4096
-4096
8192
0
4096
-4096
8192
0
4096
-4096
8192
0
4096
-4096
8192
0
4096
-4096
8192
0
4096
-4096
8192
0
4096
-4096
8192
0
4096
-4096
8192
0
4096
-4096
8192
0
4096
-4096
8192
0
4096
-4096
8192
0
4096
-4096
8192
0
4096
-4096
8192
0
4096
-4096
8192
0
4096
-4096
8192
0
4096
-4096
8192
0
4096
-4096
8192
0
4096
-4096
8192
0
4096
-4096
8192
0
4096
-4096
8192
0
4096
-4096
8192
0
4096
-4096
8192
0
4096
-4096
8192
0
4096
-4096
8192
0
4096
-4096
8192
0
4096
-4096
8192
0
4096
-4096
8192
0
4096
-4096
8192
0
4096
-4096
8192
0
4096
-4096
8192
0
4096
-4096
8192
0
4096
-4096
8192
0
4096
-4096
8192
0
4096
-4096
8192
0
4096
-4096
8192
0
4096
-4096
8192
0
4096
-4096
8192
0
4096
-4096
8192
0
4096
-4096
8192
0
4096
-4096
8192
0
4096
-4096
8192
0
4096
-4096
8192
0
4096
-4096
8192
0
4096
-4096
8192
0
4096
-4096
8192
0
4096
-4096
8192
0
4096
-4096
8192
0
4096
-4096
8192
0
4096
-4096
8192
0
4096
-4096
8192
0
4096
-4096
8192
0
4096
-4096
8192
0
4096
-4096
8192
0
4096
-4096
8192
0
4096
-4096
8192
0
4096
-4096
8192
0
4096
-4096
8192
0
4096
-4096
8192
0
4096
-4096
8192
0
4096
-4096
8192
0
4096
-4096
8192
0
4096
-4096
8192
0
4096
-4096
8192
0
4096
-4096
8192
0
4096
-4096
8192
0
4096
-4096
8192
0
4096
-4096
8192
0
4096
-4096
8192
0
4096
-4096
8192
0
4096
-4096
8192
0
4096
-4096
8192
0
4096
-4096
8192
0
4096
-4096
8192
0
4096
-4096
8192
0
4096
-4096
8192
0
4096
-4096
8192
0
4096
-4096
8192
0
4096
-4096
8192
0
4096
-4096
8192
0
4096
-4096
8192
0
4096
-4096
8192
0
4096
-4096
8192
0
4096
-4096
8192
0
4096
-4096
8192
0
4096
-4096
8192
0
4096
-4096
8192
0
4096
-4096
8192
0
4096
-4096
8192
0
4096
-4096
8192
0
4096
-4096
8192
0
4096
-4096
8192
0
4096
-4096
8192
0
4096
-4096
8192
0
4096
-4096
8192
0
4096
-4096
8192
0
4096
-4096
8192
0
4096
-4096
8192
0
4096
-4096
8192
0
4096
-4096
8192
0
4096
-4096
8192
0
4096
-4096
8192
0
4096
-4096
8192
0
4096
-4096
8192
0
4096
-4096
8192
0
4096
-4096
8192
0
4096
-4096
8192
0
4096
-4096
8192
0
4096
-4096
8192
0
4096
-4096
8192
0
4096
-4096
8192
0
4096
-4096
8192
0
4096
-4096
8192
0
4096
-4096
8192
0
4096
-4096
8192
0
4096
-4096
8192
0
4096
-4096
8192
0
4096
-4096
8192
0
4096
-4096
8192
0
4096
-4096
8192
0
4096
-4096
8192
0
4096
-4096
8192
0
4096
-4096
8192
0
4096
-4096
8192
0
4096
-4096
8192
0
4096
-4096
8192
0
4096
-4096
8192
0
4096
-4096
8192
0
4096
-4096
8192
0
4096
-4096
8192
0
4096
-4096
8192
0
4096
-4096
8192
0
4096
-4096
8192
0
4096
-4096
8192
0
4096
-4096
8192
0
4096
-4096
8192
0
4096
-4096
8192
0
4096
-4096
8192
0
4096
-4096
8192
0
4096
-4096
8192
0
4096
-4096
8192
0
4096
-4096
8192
0
4096
-4096
8192
0
4096
-4096
8192
0
4096
-4096
8192
0
4096
-4096
8192
0
4096
-4096
8192
0
4096
-4096
8192
0
4096
-4096
8192
0
4096
-4096
8192
0
4096
-4096
8192
0
4096
-4096
8192
0
4096
-4096
8192
0
4096
-4096
8192
0
4096
-4096
8192
0
4096
-4096
8192
0
4096
-4096
8192
0
4096
-4096
8192
0
4096
-4096
8192
0
4096
-4096
8192
0
4096
-4096
8192
0
4096
-4096
8192
0
4096
-4096
8192
0
4096
-4096
8192
0
4096
-4096
8192
0
4096
-4096
8192
0
4096
-4096
8192
0
4096
-4096
8192
0
4096
-4096
8192
0
4096
-4096
8192
0
4096
-4096
8192
0
4096
-4096
8192
0
4096
-4096
8192
0
4096
-4096
8192
0
4096
-4096
8192
0
4096
-4096
8192
0
4096
-4096
8192
0
4096
-4096
8192
0
4096
-4096
8192
0
4096
-4096
8192
0
4096
-4096
8192
0
4096
-4096
8192
0
4096
-4096
8192
0
4096
-4096
8192
0
4096
-4096
8192
0
4096
-4096
8192
0
4096
-4096
8192
0
4096
-4096
8192
0
4096
-4096
8192
0
4096
-4096
8192
0
4096
-4096
8192
0
4096
-4096
8192
0
4096
-4096
8192
0
4096
-4096
8192
0
4096
-4096
8192
0
4096
-4096
8192
0
4096
-4096
8192
0
4096
-4096
8192
0
4096
-4096
8192
0
4096
-4096
8192
0
4096
-4096
8192
0
4096
-4096
8192
0
4096
-4096
8192
0
4096
-4096
8192
0
4096
-4096
8192
0
4096
-4096
8192
0
4096
-4096
8192
0
4096
-4096
8192
0
4096
-4096
8192
0
4096
-4096
8192
0
4096
-4096
8192
0
4096
-4096
8192
0
4096
-4096
8192
0
4096
-4096
8192
0
4096
-4096
8192
0
4096
-4096
8192
0
4096
-4096
8192
0
4096
-4096
8192
0
4096
-4096
8192
0
4096
-4096
8192
0
4096
-4096
8192
0
4096
-4096
8192
0
4096
-4096
8192
0
4096
-4096
8192
0
4096
-4096
8192
0
4096
-4096
8192
0
4096
-4096
8192
0
4096
-4096
8192
0
4096
-4096
8192
0
4096
-4096
8192
0
4096
-4096
8192
0
4096
-4096
8192
0
4096
-4096
8192
0
4096
-4096
8192
0
4096
-4096
8192
0
4096
-4096
8192
0
4096
-4096
8192
0
4096
-4096
8192
0
4096
-4096
8192
0
4096
-4096
8192
0
4096
-4096
8192
0
4096
-4096
8192
0
4096
-4096
8192
0
4096
-4096
8192
0
4096
-4096
8192
0
4096
-4096
8192
0
4096
-4096
8192
0
4096
-4096
8192
0
4096
-4096
8192
0
4096
-4096
8192
0
4096
-4096
8192
0
4096
-4096
8192
0
4096
-4096
8192
0
4096
-4096
8192
0
4096
-4096
8192
0
4096
-4096
8192
0
4096
-4096
8192
0
4096
-4096
8192
0
4096
-4096
8192
0
4096
-4096
8192
0
4096
-4096
8192
0
4096
-4096
8192
0
4096
-4096
8192
0
4096
-4096
8192
0
4096
-4096
8192
0
4096
-4096
8192
0
4096
-4096
8192
0
4096
-4096
8192
0
4096
-4096
8192
0
4096
-4096
8192
0
4096
-4096
8192
0
4096
-4096
8192
0
4096
-4096
8192
0
4096
-4096
8192
0
4096
-4096
8192
0
4096
-4096
8192
0
4096
-4096
8192
0
4096
-4096
8192
0
4096
-4096
8192
0
4096
-4096
8192
0
4096
-4096
8192
0
4096
-4096
8192
0
4096
-4096
8192
0
4096
-4096
8192
0
4096
-4096
8192
0
4096
-4096
8192
0
4096
-4096
8192
0
4096
-4096
8192
0
4096
-4096
8192
0
4096
-4096
8192
0
4096
-4096
8192
0
4096
-4096
8192
0
4096
-4096
8192
0
4096
-4096
8192
0
4096
-4096
8192
0
4096
-4096
8192
0
4096
-4096
8192
0
4096
-4096
8192
0
4096
-4096
8192
0
4096
-4096
8192
0
4096
-4096
8192
0
4096
-4096
8192
0
4096
-4096
8192
0
4096
-4096
8192
0
4096
-4096
8192
0
4096
-4096
8192
0
4096
-4096
8192
0
4096
-4096
8192
0
4096
-4096
8192
0
4096
-4096
8192
0
4096
-4096
8192
0
4096
-4096
8192
0
4096
-4096
8192
0
4096
-4096
8192
0
4096
-4096
8192
0
4096
-4096
8192
0
4096
-4096
8192
0
4096
-4096
8192
0
4096
-4096
8192
0
4096
-4096
8192
0
4096
-4096
8192
0
4096
-4096
8192
0
4096
-4096
8192
0
4096
-4096
8192
0
4096
-4096
8192
0
4096
-4096
8192
0
4096
-4096
8192
0
4096
-4096
8192
0
4096
-4096
8192
0
4096
-4096
8192
0
4096
-4096
8192
0
4096
-4096
8192
0
4096
-4096
8192
0
4096
-4096
8192
0
4096
-4096
8192
0
4096
-4096
8192
0
4096
-4096
8192
0
4096
-4096
8192
0
4096
-4096
8192
0
4096
-4096
8192
0
4096
-4096
8192
0
4096
-4096
8192
0
4096
-4096
8192
0
4096
-4096
8192
0
4096
-4096
8192
0
4096
-4096
8192
0
4096
-4096
8192
0
4096
-4096
8192
0
4096
-4096
8192
0
4096
-4096
8192
0
4096
-4096
8192
0
4096
-4096
8192
0
4096
-4096
8192
0
4096
-4096
8192
0
4096
-4096
8192
0
4096
-4096
8192
0
4096
-4096
8192
0
4096
-4096
8192
0
4096
-4096
8192
0
4096
-4096
8192
0
4096
-4096
8192
0
4096
-4096
8192
0
4096
-4096
8192
0
4096
-4096
8192
0
4096
-4096
8192
0
4096
-4096
8192
0
4096
-4096
8192
0
4096
-4096
8192
0
4096
-4096
8192
0
4096
-4096
8192
0
4096
-4096
8192
0
4096
-4096
8192
0
4096
-4096
8192
0
4096
-4096
8192
0
4096
-4096
8192
0
4096
-4096
8192
0
4096
-4096
8192
0
4096
-4096
8192
0
4096
-4096
8192
0
4096
-4096
8192
0
4096
-4096
8192
0
4096
-4096
8192
0
4096
-4096
8192
0
4096
-4096
8192
0
4096
-4096
8192
0
4096
-4096
8192
0
4096
-4096
8192
0
4096
-4096
8192
0
4096
-4096
8192
0
4096
-4096
8192
0
4096
-4096
8192
0
4096
-4096
8192
0
4096
-4096
8192
0
4096
-4096
8192
0
4096
-4096
8192
0
4096
-4096
8192
0
4096
-4096
8192
0
4096
-4096
8192
0
4096
-4096
8192
0
4096
-4096
8192
0
4096
-4096
8192
0
4096
-4096
8192
0
4096
-4096
8192
0
4096
-4096
8192
0
4096
-4096
8192
0
4096
-4096
8192
0
4096
-4096
8192
0
4096
-4096
8192
0
4096
-4096
8192
0
4096
-4096
8192
0
4096
-4096
8192
0
4096
-4096
8192
0
4096
-4096
8192
0
4096
-4096
8192
0
4096
-4096
8192
0
4096
-4096
8192
0
4096
-4096
8192
0
4096
-4096
8192
0
4096
-4096
8192
0
4096
-4096
8192
0
4096
-4096
8192
0
4096
-4096
8192
0
4096
-4096
8192
0
4096
-4096
8192
0
4096
-4096
8192
0
4096
-4096
8192
0
4096
-4096
8192
0
4096
-4096
8192
0
4096
-4096
8192
0
4096
-4096
8192
0
4096
-4096
8192
0
4096
-4096
8192
0
4096
-4096
8192
0
4096
-4096
8192
0
4096
-4096
8192
0
4096
-4096
8192
0
4096
-4096
8192
0
4096
-4096
8192
0
4096
-4096
8192
0
4096
-4096
8192
0
4096
-4096
8192
0
4096
-4096
8192
0
4096
-4096
8192
0
4096
-4096
8192
0
4096
-4096
8192
0
4096
-4096
8192
0
4096
-4096
8192
0
4096
-4096
8192
0
4096
-4096
8192
0
4096
-4096
8192
0
4096
-4096
8192
0
4096
-4096
8192
0
4096
-4096
8192
0
4096
-4096
8192
0
4096
-4096
8192
0
4096
-4096
8192
0
4096
-4096
8192
0
4096
-4096
8192
0
4096
-4096
8192
0
4096
-4096
8192
0
4096
-4096
8192
0
4096
-4096
8192
0
4096
-4096
8192
0
4096
-4096
8192
0
4096
-4096
8192
0
4096
-4096
8192
0
4096
-4096
8192
0
4096
-4096
8192
0
4096
-4096
8192
0
4096
-4096
8192
0
4096
-4096
8192
0
4096
-4096
8192
0
4096
-4096
8192
0
4096
-4096
8192
0
4096
-4096
8192
0
4096
-4096
8192
0
4096
-4096
8192
0
4096
-4096
8192
0
4096
-4096
8192
0
4096
-4096
8192
0
4096
-4096
8192
0
4096
-4096
8192
0
4096
-4096
8192
0
4096
-4096
8192
0
4096
-4096
8192
0
4096
-4096
8192
0
4096
-4096
8192
0
4096
-4096
8192
0
4096
-4096
8192
0
4096
-4096
8192
0
4096
-4096
8192
0
4096
-4096
8192
0
4096
-4096
8192
0
4096
-4096
8192
0
4096
-4096
8192
0
4096
-4096
8192
0
4096
-4096
8192
0
4096
-4096
8192
0
4096
-4096
8192
0
4096
-4096
8192
0
4096
-4096
8192
0
4096
-4096
8192
0
4096
-4096
8192
0
4096
-4096
8192
0
4096
-4096
8192
0
4096
-4096
8192
0
4096
-4096
8192
0
4096
-4096
8192
0
4096
-4096
8192
0
4096
-4096
8192
0
4096
-4096
8192
0
4096
-4096
8192
0
4096
-4096
8192
0
4096
-4096
8192
0
4096
-4096
8192
0
4096
-4096
8192
0
4096
-4096
8192
0
4096
-4096
8192
0
4096
-4096
8192
0
4096
-4096
8192
0
4096
-4096
8192
0
4096
-4096
8192
0
4096
-4096
8192
0
4096
-4096
8192
0
4096
-4096
8192
0
4096
-4096
8192
0
4096
-4096
8192
0
4096
-4096
8192
0
4096
-4096
8192
0
4096
-4096
8192
0
4096
-4096
8192
0
4096
-4096
8192
0
4096
-4096
8192
0
4096
-4096
8192
0
4096
-4096
8192
0
4096
-4096
8192
0
4096
-4096
8192
0
4096
-4096
8192
0
4096
-4096
8192
0
4096
-4096
8192
0
4096
-4096
8192
0
4096
-4096
8192
0
4096
-4096
8192
0
4096
-4096
8192
0
4096
-4096
8192
0
4096
-4096
8192
0
4096
-4096
8192
0
4096
-4096
8192
0
4096
-4096
8192
0
4096
-4096
8192
0
4096
-4096
8192
0
4096
-4096
8192
0
4096
-4096
8192
0
4096
-4096
8192
0
4096
-4096
8192
0
4096
-4096
8192
0
4096
-4096
8192
0
4096
-4096
8192
0
4096
-4096
8192
0
4096
-4096
8192
0
4096
-4096
8192
0
4096
-4096
8192
0
4096
-4096
8192
0
4096
-4096
8192
0
4096
-4096
8192
0
4096
-4096
8192
0
4096
-4096
8192
0
4096
-4096
8192
0
4096
-4096
8192
0
4096
-4096
8192
0
4096
-4096
8192
0
4096
-4096
8192
0
4096
-4096
8192
0
4096
-4096
8192
0
4096
-4096
8192
0
4096
-4096
8192
0
4096
-4096
8192
0
4096
-4096
8192
0
4096
-4096
8192
0
4096
-4096
8192
0
4096
-4096
8192
0
4096
-4096
8192
0
4096
-4096
8192
0
4096
-4096
8192
0
4096
-4096
8192
0
4096
-4096
8192
0
4096
-4096
8192
0
4096
-4096
8192
0
4096
-4096
8192
0
4096
-4096
8192
0
4096
-4096
8192
0
4096
-4096
8192
0
4096
-4096
8192
0
4096
-4096
8192
0
4096
-4096
8192
0
4096
-4096
8192
0
4096
-4096
8192
0
4096
-4096
8192
0
4096
-4096
8192
0
4096
-4096
8192
0
4096
-4096
8192
0
4096
-4096
8192
0
4096
-4096
8192
0
4096
-4096
8192
0
4096
-4096
8192
0
4096
-4096
8192
0
4096
-4096
8192
0
4096
-4096
8192
0
4096
-4096
8192
0
4096
-4096
8192
0
4096
-4096
8192
0
4096
-4096
8192
0
4096
-4096
8192
0
4096
-4096
8192
0
4096
-4096
8192
0
4096
-4096
8192
0
4096
-4096
8192
0
4096
-4096
8192
0
4096
-4096
8192
0
4096
-4096
8192
0
4096
-4096
8192
0
4096
-4096
8192
0
4096
-4096
8192
0
4096
-4096
8192
0
4096
-4096
8192
0
4096
-4096
8192
0
4096
-4096
8192
0
4096
-4096
8192
0
4096
-4096
8192
0
4096
-4096
8192
0
4096
-4096
8192
0
4096
-4096
8192
0
4096
-4096
8192
0
4096
-4096
8192
0
4096
-4096
8192
0
4096
-4096
8192
0
4096
-4096
8192
0
4096
-4096
8192
0
4096
-4096
8192
0
4096
-4096
8192
0
4096
-4096
8192
0
4096
-4096
8192
0
4096
-4096
8192
0
4096
-4096
8192
0
4096
-4096
8192
0
4096
-4096
8192
0
4096
-4096
8192
0
4096
-4096
8192
0
4096
-4096
8192
0
4096
-4096
8192
0
4096
-4096
8192
0
4096
-4096
8192
0
4096
-4096
8192
0
4096
-4096
8192
0
4096
-4096
8192
0
4096
-4096
8192
0
4096
-4096
8192
0
4096
-4096
8192
0
4096
-4096
8192
0
4096
-4096
8192
0
4096
-4096
8192
0
4096
-4096
8192
0
4096
-4096
8192
0
4096
-4096
8192
0
4096
-4096
8192
0
4096
-4096
8192
0
4096
-4096
8192
0
4096
-4096
8192
0
4096
-4096
8192
0
4096
-4096
8192
0
4096
-4096
8192
0
4096
-4096
8192
0
4096
-4096
8192
0
4096
-4096
8192
0
4096
-4096
8192
0
4096
-4096
8192
0
4096
-4096
8192
0
4096
-4096
8192
0
4096
-4096
8192
0
4096
-4096
8192
0
4096
-4096
8192
0
4096
-4096
8192
0
4096
-4096
8192
0
4096
-4096
8192
0
4096
-4096
8192
0
4096
-4096
8192
0
4096
-4096
8192
0
4096
-4096
8192
0
4096
-4096
8192
0
4096
-4096
8192
0
4096
-4096
8192
0
4096
-4096
8192
0
4096
-4096
8192
0
4096
-4096
8192
0
4096
-4096
8192
0
4096
-4096
8192
0
4096
-4096
8192
0
4096
-4096
8192
0
4096
-4096
8192
0
4096
-4096
8192
0
4096
-4096
8192
0
4096
-4096
8192
0
4096
-4096
8192
0
4096
-4096
8192
0
4096
-4096
8192
0
4096
-4096
8192
0
4096
-4096
8192
0
4096
-4096
8192
0
4096
-4096
8192
0
4096
-4096
8192
0
4096
-4096
8192
0
4096
-4096
8192
0
4096
-4096
8192
0
4096
-4096
8192
0
4096
-4096
8192
0
4096
-4096
8192
0
4096
-4096
8192
0
4096
-4096
8192
0
4096
-4096
8192
0
4096
-4096
8192
0
4096
-4096
8192
0
4096
-4096
8192
0
4096
-4096
8192
0
4096
-4096
8192
0
4096
-4096
8192
0
4096
-4096
8192
0
4096
-4096
8192
0
4096
-4096
8192
0
4096
-4096
8192
0
4096
-4096
8192
0
4096
-4096
8192
0
4096
-4096
8192
0
4096
-4096
8192
0
4096
-4096
8192
0
4096
-4096
8192
0
4096
-4096
8192
0
4096
-4096
8192
0
4096
-4096
8192
0
4096
-4096
8192
0
4096
-4096
8192
0
4096
-4096
8192
0
4096
-4096
8192
0
4096
-4096
8192
0
4096
-4096
8192
0
4096
-4096
8192
0
4096
-4096
8192
0
4096
-4096
8192
0
4096
-4096
8192
0
4096
-4096
8192
0
4096
-4096
8192
0
4096
-4096
8192
0
4096
-4096
8192
0
4096
-4096
8192
0
4096
-4096
8192
0
4096
-4096
8192
0
4096
-4096
8192
0
4096
-4096
8192
0
4096
-4096
8192
0
4096
-4096
8192
0
4096
-4096
8192
0
4096
-4096
8192
0
4096
-4096
8192
0
4096
-4096
8192
0
4096
-4096
8192
0
4096
-4096
8192
0
4096
-4096
8192
0
4096
-4096
8192
0
4096
-4096
8192
0
4096
-4096
8192
0
4096
-4096
8192
0
4096
-4096
8192
0
4096
-4096
8192
0
4096
-4096
8192
0
4096
-4096
8192
0
4096
-4096
8192
0
4096
-4096
8192
0
4096
-4096
8192
0
4096
-4096
8192
0
4096
-4096
8192
0
4096
-4096
8192
0
4096
-4096
8192
0
4096
-4096
8192
0
4096
-4096
8192
0
4096
-4096
8192
0
4096
-4096
8192
0
4096
-4096
8192
0
4096
-4096
8192
0
4096
-4096
8192
0
4096
-4096
8192
0
4096
-4096
8192
0
4096
-4096
8192
0
4096
-4096
8192
0
4096
-4096
8192
0
4096
-4096
8192
0
4096
-4096
8192
0
4096
-4096
8192
0
4096
-4096
8192
0
4096
-4096
8192
0
4096
-4096
8192
0
4096
-4096
8192
0
4096
-4096
8192
0
4096
-4096
8192
0
4096
-4096
8192
0
4096
-4096
8192
0
4096
-4096
8192
0
4096
-4096
8192
0
4096
-4096
8192
0
4096
-4096
8192
0
4096
-4096
8192
0
4096
-4096
8192
0
4096
-4096
8192
0
4096
-4096
8192
0
4096
-4096
8192
0
4096
-4096
8192
0
4096
-4096
8192
0
4096
-4096
8192
0
4096
-4096
8192
0
4096
-4096
8192
0
4096
-4096
8192
0
4096
-4096
8192
0
4096
-4096
8192
0
4096
-4096
8192
0
4096
-4096
8192
0
4096
-4096
8192
0
4096
-4096
8192
0
4096
-4096
8192
0
4096
-4096
8192
0
4096
-4096
8192
0
4096
-4096
8192
0
4096
-4096
8192
0
4096
-4096
8192
0
4096
-4096
8192
0
4096
-4096
8192
0
4096
-4096
8192
0
4096
-4096
8192
0
4096
-4096
8192
0
4096
-4096
8192
0
4096
-4096
8192
0
4096
-4096
8192
0
4096
-4096
8192
0
4096
-4096
8192
0
4096
-4096
8192
0
4096
-4096
8192
0
4096
-4096
8192
0
4096
-4096
8192
0
4096
-4096
8192
0
4096
-4096
8192
0
4096
-4096
8192
0
4096
-4096
8192
0
4096
-4096
8192
0
4096
-4096
8192
0
4096
-4096
8192
0
4096
-4096
8192
0
4096
-4096
8192
0
4096
-4096
8192
0
4096
-4096
8192
0
4096
-4096
8192
0
4096
-4096
8192
0
4096
-4096
8192
0
4096
-4096
8192
0
4096
-4096
8192
0
4096
-4096
8192
0
4096
-4096
8192
0
4096
-4096
8192
0
4096
-4096
8192
0
4096
-4096
8192
0
4096
-4096
8192
0
4096
-4096
8192
0
4096
-4096
8192
0
4096
-4096
8192
0
4096
-4096
8192
0
4096
-4096
8192
0
4096
-4096
8192
0
4096
-4096
8192
0
4096
-4096
8192
0
4096
-4096
8192
0
4096
-4096
8192
0
4096
-4096
8192
0
4096
-4096
8192
0
4096
-4096
8192
0
4096
-4096
8192
0
4096
-4096
8192
0
4096
-4096
8192
0
4096
-4096
8192
0
4096
-4096
8192
0
4096
-4096
8192
0
4096
-4096
8192
0
4096
-4096
8192
0
4096
-4096
8192
0
4096
-4096
8192
0
4096
-4096
8192
0
4096
-4096
8192
0
4096
-4096
8192
0
4096
-4096
8192
0
4096
-4096
8192
0
4096
-4096
8192
0
4096
-4096
8192
0
4096
-4096
8192
0
4096
-4096
8192
0
4096
-4096
8192
0
4096
-4096
8192
0
4096
-4096
8192
0
4096
-4096
8192
0
4096
-4096
8192
0
4096
-4096
8192
0
4096
-4096
8192
0
4096
-4096
8192
0
4096
-4096
8192
0
4096
-4096
8192
0
4096
-4096
8192
0
4096
-4096
8192
0
4096
-4096
8192
0
4096
-4096
8192
0
4096
-4096
8192
0
4096
-4096
8192
0
4096
-4096
8192
0
4096
-4096
8192
0
4096
-4096
8192
0
4096
-4096
8192
0
4096
-4096
8192
0
4096
-4096
8192
0
4096
-4096
8192
0
4096
-4096
8192
0
4096
-4096
8192
0
4096
-4096
8192
0
4096
-4096
8192
0
4096
-4096
8192
0
4096
-4096
8192
0
4096
-4096
8192
0
4096
-4096
8192
0
4096
-4096
8192
0
4096
-4096
8192
0
4096
-4096
8192
0
4096
-4096
8192
0
4096
-4096
8192
0
4096
-4096
8192
0
4096
-4096
8192
0
4096
-4096
8192
0
4096
-4096
8192
0
4096
-4096
8192
0
4096
-4096
8192
0
4096
-4096
8192
0
4096
-4096
8192
0
4096
-4096
8192
0
4096
-4096
8192
0
4096
-4096
8192
0
4096
-4096
8192
0
4096
-4096
8192
0
4096
-4096
8192
0
4096
-4096
8192
0
4096
-4096
8192
0
4096
-4096
8192
0
4096
-4096
8192
0
4096
-4096
8192
0
4096
-4096
8192
0
4096
-4096
8192
0
4096
-4096
8192
0
4096
-4096
8192
0
4096
-4096
8192
0
4096
-4096
8192
0
4096
-4096
8192
0
4096
-4096
8192
0
4096
-4096
8192
0
4096
-4096
8192
0
4096
-4096
8192
0
4096
-4096
8192
0
4096
-4096
8192
0
4096
-4096
8192
0
4096
-4096
8192
0
4096
-4096
8192
0
4096
-4096
8192
0
4096
-4096
8192
0
4096
-4096
8192
0
4096
-4096
8192
0
4096
-4096
8192
0
4096
-4096
8192
0
4096
-4096
8192
0
4096
-4096
8192
0
4096
-4096
8192
0
4096
-4096
8192
0
4096
-4096
8192
0
4096
-4096
8192
0
4096
-4096
8192
0
4096
-4096
8192
0
4096
-4096
8192
0
4096
-4096
8192
0
4096
-4096
8192
0
4096
-4096
8192
0
4096
-4096
8192
0
4096
-4096
8192
0
4096
-4096
8192
0
4096
-4096
8192
0
4096
-4096
8192
0
4096
-4096
8192
0
4096
-4096
8192
0
4096
-4096
8192
0
4096
-4096
8192
0
4096
-4096
8192
0
4096
-4096
8192
0
4096
-4096
8192
0
4096
-4096
8192
0
4096
-4096
8192
0
4096
-4096
8192
0
4096
-4096
8192
0
4096
-4096
8192
0
4096
-4096
8192
0
4096
-4096
8192
0
4096
-4096
8192
0
4096
-4096
8192
0
4096
-4096
8192
0
4096
-4096
8192
0
4096
-4096
8192
0
4096
-4096
8192
0
4096
-4096
8192
0
4096
-4096
8192
0
4096
-4096
8192
0
4096
-4096
8192
0
4096
-4096
8192
0
4096
-4096
8192
0
4096
-4096
8192
0
4096
-4096
8192
0
4096
-4096
8192
0
4096
-4096
8192
0
4096
-4096
8192
0
4096
-4096
8192
0
4096
-4096
8192
0
4096
-4096
8192
0
4096
-4096
8192
0
4096
-4096
8192
0
4096
-4096
8192
0
4096
-4096
8192
0
4096
-4096
8192
0
4096
-4096
8192
0
4096
-4096
8192
0
4096
-4096
8192
0
4096
-4096
8192
0
4096
-4096
8192
0
4096
-4096
8192
0
4096
-4096
8192
0
4096
-4096
8192
0
4096
-4096
8192
0
4096
-4096
8192
0
4096
-4096
8192
0
4096
-4096
8192
0
4096
-4096
8192
0
4096
-4096
8192
0
4096
-4096
8192
0
4096
-4096
8192
0
4096
-4096
8192
0
4096
-4096
8192
0
4096
-4096
8192
0
4096
-4096
8192
0
4096
-4096
8192
0
4096
-4096
8192
0
4096
-4096
8192
0
4096
-4096
8192
0
4096
-4096
8192
0
4096
-4096
8192
0
4096
-4096
8192
0
4096
-4096
8192
0
4096
-4096
8192
0
4096
-4096
8192
0
4096
-4096
8192
0
4096
-4096
8192
0
4096
-4096
8192
0
4096
-4096
8192
0
4096
-4096
8192
0
4096
-4096
8192
0
4096
-4096
8192
0
4096
-4096
8192
0
4096
-4096
8192
0
4096
-4096
8192
0
4096
-4096
8192
0
4096
-4096
8192
0
4096
-4096
8192
0
4096
-4096
8192
0
4096
-4096
8192
0
4096
-4096
8192
0
4096
-4096
8192
0
4096
-4096
8192
0
4096
-4096
8192
0
4096
-4096
8192
0
4096
-4096
8192
0
4096
-4096
8192
0
4096
-4096
8192
0
4096
-4096
8192
0
4096
-4096
8192
0
4096
-4096
8192
0
4096
-4096
8192
0
4096
-4096
8192
0
4096
-4096
8192
0
4096
-4096
8192
0
4096
-4096
8192
0
4096
-4096
8192
0
4096
-4096
8192
0
4096
-4096
8192
0
4096
-4096
8192
0
4096
-4096
8192
0
4096
-4096
8192
0
4096
-4096
8192
0
4096
-4096
8192
0
4096
-4096
8192
0
4096
-4096
8192
0
4096
-4096
8192
0
4096
-4096
8192
0
4096
-4096
8192
0
4096
-4096
8192
0
4096
-4096
8192
0
4096
-4096
8192
0
4096
-4096
8192
0
4096
-4096
8192
0
4096
-4096
8192
0
4096
-4096
8192
0
4096
-4096
8192
0
4096
-4096
8192
0
4096
-4096
8192
0
4096
-4096
8192
0
4096
-4096
8192
0
4096
-4096
8192
0
4096
-4096
8192
0
4096
-4096
8192
0
4096
-4096
8192
0
4096
-4096
8192
0
4096
-4096
8192
0
4096
-4096
8192
0
4096
-4096
8192
0
4096
-4096
8192
0
4096
-4096
8192
0
4096
-4096
8192
0
4096
-4096
8192
0
4096
-4096
8192
0
4096
-4096
8192
0
4096
-4096
8192
0
4096
-4096
8192
0
4096
-4096
8192
0
4096
-4096
8192
0
4096
-4096
8192
0
4096
-4096
8192
0
4096
-4096
8192
0
4096
-4096
8192
0
4096
-4096
8192
0
4096
-4096
8192
0
4096
-4096
8192
0
4096
-4096
8192
0
4096
-4096
8192
0
4096
-4096
8192
0
4096
-4096
8192
0
4096
-4096
8192
0
4096
-4096
8192
0
4096
-4096
8192
0
4096
-4096
8192
0
4096
-4096
8192
0
4096
-4096
8192
0
4096
-4096
8192
0
4096
-4096
8192
0
4096
-4096
8192
0
4096
-4096
8192
0
4096
-4096
8192
0
4096
-4096
8192
0
4096
-4096
8192
0
4096
-4096
8192
0
4096
-4096
8192
0
4096
-4096
8192
0
4096
-4096
8192
0
4096
-4096
8192
0
4096
-4096
8192
0
4096
-4096
8192
0
4096
-4096
8192
0
4096
-4096
8192
0
4096
-4096
8192
0
4096
-4096
8192
0
4096
-4096
8192
0
4096
-4096
8192
0
4096
-4096
8192
0
4096
-4096
8192
0
4096
-4096
8192
0
4096
-4096
8192
0
4096
-4096
8192
0
4096
-4096
8192
0
4096
-4096
8192
0
4096
-4096
8192
0
4096
-4096
8192
0
4096
-4096
8192
0
4096
-4096
8192
0
4096
-4096
8192
0
4096
-4096
8192
0
4096
-4096
8192
0
4096
-4096
8192
0
4096
-4096
8192
0
4096
-4096
8192
0
4096
-4096
8192
0
4096
-4096
8192
0
4096
-4096
8192
0
4096
-4096
8192
0
4096
-4096
8192
0
4096
-4096
8192
0
4096
-4096
8192
0
4096
-4096
8192
0
4096
-4096
8192
0
4096
-4096
8192
0
4096
-4096
8192
0
4096
-4096
8192
0
4096
-4096
8192
0
4096
-4096
8192
0
4096
-4096
8192
0
4096
-4096
8192
0
4096
-4096
8192
0
4096
-4096
8192
0
4096
-4096
8192
0
4096
-4096
8192
0
4096
-4096
8192
0
4096
-4096
8192
0
4096
-4096
8192
0
4096
-4096
8192
0
4096
-4096
8192
0
4096
-4096
8192
0
4096
-4096
8192
0
4096
-4096
8192
0
4096
-4096
8192
0
4096
-4096
8192
0
4096
-4096
8192
0
4096
-4096
8192
0
4096
-4096
8192
0
4096
-4096
8192
0
4096
-4096
8192
0
4096
-4096
8192
0
4096
-4096
8192
0
4096
-4096
8192
0
4096
-4096
8192
0
4096
-4096
8192
0
4096
-4096
8192
0
4096
-4096
8192
0
4096
-4096
8192
0
4096
-4096
8192
0
4096
-4096
8192
0
4096
-4096
8192
0
4096
-4096
8192
0
4096
-4096
8192
0
4096
-4096
8192
0
4096
-4096
8192
0
4096
-4096
8192
0
4096
-4096
8192
0
4096
-4096
8192
0
4096
-4096
8192
0
4096
-4096
8192
0
4096
-4096
8192
0
4096
-4096
8192
0
4096
-4096
8192
0
4096
-4096
8192
0
4096
-4096
8192
0
4096
-4096
8192
0
4096
-4096
8192
0
4096
-4096
8192
0
4096
-4096
8192
0
4096
-4096
8192
0
4096
-4096
8192
0
4096
-4096
8192
0
4096
-4096
8192
0
4096
-4096
8192
0
4096
-4096
8192
0
4096
-4096
8192
0
4096
-4096
8192
0
4096
-4096
8192
0
4096
-4096
8192
0
4096
-4096
8192
0
4096
-4096
8192
0
4096
-4096
8192
0
4096
-4096
8192
0
4096
-4096
8192
0
4096
-4096
8192
0
4096
-4096
8192
0
4096
-4096
8192
0
4096
-4096
8192
0
4096
-4096
8192
0
4096
-4096
8192
0
4096
-4096
8192
0
4096
-4096
8192
0
4096
-4096
8192
0
4096
-4096
8192
0
4096
-4096
8192
0
4096
-4096
8192
0
4096
-4096
8192
0
4096
-4096
8192
0
4096
-4096
8192
0
4096
-4096
8192
0
4096
-4096
8192
0
4096
-4096
8192
0
4096
-4096
8192
0
4096
-4096
8192
0
4096
-4096
8192
0
4096
-4096
8192
0
4096
-4096
8192
0
4096
-4096
8192
0
4096
-4096
8192
0
4096
-4096
8192
0
4096
-4096
8192
0
4096
-4096
8192
0
4096
-4096
8192
0
4096
-4096
8192
0
4096
-4096
8192
0
4096
-4096
8192
0
4096
-4096
8192
0
4096
-4096
8192
0
4096
-4096
8192
0
4096
-4096
8192
0
4096
-4096
8192
0
4096
-4096
8192
0
4096
-4096
8192
0
4096
-4096
8192
0
4096
-4096
8192
0
4096
-4096
8192
0
4096
-4096
8192
0
4096
-4096
8192
0
4096
-4096
8192
0
4096
-4096
8192
0
4096
-4096
8192
0
4096
-4096
8192
0
4096
-4096
8192
0
4096
-4096
8192
0
4096
-4096
8192
0
4096
-4096
8192
0
4096
-4096
8192
0
4096
-4096
8192
0
4096
-4096
8192
0
4096
-4096
8192
0
4096
-4096
8192
0
4096
-4096
8192
0
4096
-4096
8192
0
4096
-4096
8192
0
4096
-4096
8192
0
4096
-4096
8192
0
4096
-4096
8192
0
4096
-4096
8192
0
4096
-4096
8192
0
4096
-4096
8192
0
4096
-4096
8192
0
4096
-4096
8192
0
4096
-4096
8192
0
4096
-4096
8192
0
4096
-4096
8192
0
4096
-4096
8192
0
4096
-4096
8192
0
4096
-4096
8192
0
4096
-4096
8192
0
4096
-4096
8192
0
4096
-4096
8192
0
4096
-4096
8192
0
4096
-4096
8192
0
4096
-4096
8192
0
4096
-4096
8192
0
4096
-4096
8192
0
4096
-4096
8192
0
4096
-4096
8192
0
4096
-4096
8192
0
4096
-4096
8192
0
4096
-4096
8192
0
4096
-4096
8192
0
4096
-4096
8192
0
4096
-4096
8192
0
4096
-4096
8192
0
4096
-4096
8192
0
4096
-4096
8192
0
4096
-4096
8192
0
4096
-4096
8192
0
4096
-4096
8192
0
4096
-4096
8192
0
4096
-4096
8192
0
4096
-4096
8192
0
4096
-4096
8192
0
4096
-4096
8192
0
4096
-4096
8192
0
4096
-4096
8192
0
4096
-4096
8192
0
4096
-4096
8192
0
4096
-4096
8192
0
4096
-4096
8192
0
4096
-4096
8192
0
4096
-4096
8192
0
4096
-4096
8192
0
4096
-4096
8192
0
4096
-4096
8192
0
4096
-4096
8192
0
4096
-4096
8192
0
4096
-4096
8192
0
4096
-4096
8192
0
4096
-4096
8192
0
4096
-4096
8192
0
4096
-4096
8192
0
4096
-4096
8192
0
4096
-4096
8192
0
4096
-4096
8192
0
4096
-4096
8192
0
4096
-4096
8192
0
4096
-4096
8192
0
4096
-4096
8192
0
4096
-4096
8192
0
4096
-4096
8192
0
4096
-4096
8192
0
4096
-4096
8192
0
4096
-4096
8192
0
4096
-4096
8192
0
4096
-4096
8192
0
4096
-4096
8192
0
4096
-4096
8192
0
4096
-4096
8192
0
4096
-4096
8192
0
4096
-4096
8192
0
4096
-4096
8192
0
4096
-4096
8192
0
4096
-4096
8192
0
4096
-4096
8192
0
4096
-4096
8192
0
4096
-4096
8192
0
4096
-4096
8192
0
4096
-4096
8192
0
4096
-4096
8192
0
4096
-4096
8192
0
4096
-4096
8192
0
4096
-4096
8192
0
4096
-4096
8192
0
4096
-4096
8192
0
4096
-4096
8192
0
4096
-4096
8192
0
4096
-4096
8192
0
4096
-4096
8192
0
4096
-4096
8192
0
4096
-4096
8192
0
4096
-4096
8192
0
4096
-4096
8192
0
4096
-4096
8192
0
4096
-4096
8192
0
4096
-4096
8192
0
4096
-4096
8192
0
4096
-4096
8192
0
4096
-4096
8192
0
4096
-4096
8192
0
4096
-4096
8192
0
4096
-4096
8192
0
4096
-4096
8192
0
4096
-4096
8192
0
4096
-4096
8192
0
4096
-4096
8192
0
4096
-4096
8192
0
4096
-4096
8192
0
4096
-4096
8192
0
4096
-4096
8192
0
4096
-4096
8192
0
4096
-4096
8192
0
4096
-4096
8192
0
4096
-4096
8192
0
4096
-4096
8192
0
4096
-4096
8192
0
4096
-4096
8192
0
4096
-4096
8192
0
4096
-4096
8192
0
4096
-4096
8192
0
4096
-4096
8192
0
4096
-4096
8192
0
4096
-4096
8192
0
4096
-4096
8192
0
4096
-4096
8192
0
4096
-4096
8192
0
4096
-4096
8192
0
4096
-4096
8192
0
4096
-4096
8192
0
4096
-4096
8192
0
4096
-4096
8192
0
4096
-4096
8192
0
4096
-4096
8192
0
4096
-4096
8192
0
4096
-4096
8192
0
4096
-4096
8192
0
4096
-4096
8192
0
4096
-4096
8192
0
4096
-4096
8192
0
4096
-4096
8192
0
4096
-4096
8192
0
4096
-4096
8192
0
4096
-4096
8192
0
4096
-4096
8192
0
4096
-4096
8192
0
4096
-4096
8192
0
4096
-4096
8192
0
4096
-4096
8192
0
4096
-4096
8192
0
4096
-4096
8192
0
4096
-4096
8192
0
4096
-4096
8192
0
4096
-4096
8192
0
4096
-4096
8192
0
4096
-4096
8192
0
4096
-4096
8192
0
4096
-4096
8192
0
4096
-4096
8192
0
4096
-4096
8192
0
4096
-4096
8192
0
4096
-4096
8192
0
4096
-4096
8192
0
4096
-4096
8192
0
4096
-4096
8192
0
4096
-4096
8192
0
4096
-4096
8192
0
4096
-4096
8192
0
4096
-4096
8192
0
4096
-4096
8192
0
4096
-4096
8192
0
4096
-4096
8192
0
4096
-4096
8192
0
4096
-4096
8192
0
4096
-4096
8192
0
4096
-4096
8192
0
4096
-4096
8192
0
4096
-4096
8192
0
4096
-4096
8192
0
4096
-4096
8192
0
4096
-4096
8192
0
4096
-4096
8192
0
4096
-4096
8192
0
4096
-4096
8192
0
4096
-4096
8192
0
4096
-4096
8192
0
4096
-4096
8192
0
4096
-4096
8192
0
4096
-4096
8192
0
4096
-4096
8192
0
4096
-4096
8192
0
4096
-4096
8192
0
4096
-4096
8192
0
4096
-4096
8192
0
4096
-4096
8192
0
4096
-4096
8192
0
4096
-4096
8192
0
4096
-4096
8192
0
4096
-4096
8192
0
4096
-4096
8192
0
4096
-4096
8192
0
4096
-4096
8192
0
4096
-4096
8192
0
4096
-4096
8192
0
4096
-4096
8192
0
4096
-4096
8192
0
4096
-4096
8192
0
4096
-4096
8192
0
4096
-4096
8192
0
4096
-4096
8192
0
4096
-4096
8192
0
4096
-4096
8192
0
4096
-4096
8192
0
4096
-4096
8192
0
4096
-4096
8192
0
4096
-4096
8192
0
4096
-4096
8192
0
4096
-4096
8192
0
4096
-4096
8192
0
4096
-4096
8192
0
4096
-4096
8192
0
4096
-4096
8192
0
4096
-4096
8192
0
4096
-4096
8192
0
4096
-4096
8192
0
4096
-4096
8192
0
4096
-4096
8192
0
4096
-4096
8192
0
4096
-4096
8192
0
4096
-4096
8192
0
4096
-4096
8192
0
4096
-4096
8192
0
4096
-4096
8192
0
4096
-4096
8192
0
4096
-4096
8192
0
4096
-4096
8192
0
4096
-4096
8192
0
4096
-4096
8192
0
4096
-4096
8192
0
4096
-4096
8192
0
4096
-4096
8192
0
4096
-4096
8192
0
4096
-4096
8192
0
4096
-4096
8192
0
4096
-4096
8192
0
4096
-4096
8192
0
4096
-4096
8192
0
4096
-4096
8192
0
4096
-4096
8192
0
4096
-4096
8192
0
4096
-4096
8192
0
4096
-4096
8192
0
4096
-4096
8192
0
4096
-4096
8192
0
4096
-4096
8192
0
4096
-4096
8192
0
4096
-4096
8192
0
4096
-4096
8192
0
4096
-4096
8192
0
4096
-4096
8192
0
4096
-4096
8192
0
4096
-4096
8192
0
4096
-4096
8192
0
4096
-4096
8192
0
4096
-4096
8192
0
4096
-4096
8192
0
4096
-4096
8192
0
4096
-4096
8192
0
4096
-4096
8192
0
4096
-4096
8192
0
4096
-4096
8192
0
4096
-4096
8192
0
4096
-4096
8192
0
4096
-4096
8192
0
4096
-4096
8192
0
4096
-4096
8192
0
4096
-4096
8192
0
4096
-4096
8192
0
4096
-4096
8192
0
4096
-4096
8192
0
4096
-4096
8192
0
4096
-4096
8192
0
4096
-4096
8192
0
4096
-4096
8192
0
4096
-4096
8192
0
4096
-4096
8192
0
4096
-4096
8192
0
4096
-4096
8192
0
4096
-4096
8192
0
4096
-4096
8192
0
4096
-4096
8192
0
4096
-4096
8192
0
4096
-4096
8192
0
4096
-4096
8192
0
4096
-4096
8192
0
4096
-4096
8192
0
4096
-4096
8192
0
4096
-4096
8192
0
4096
-4096
8192
0
4096
-4096
8192
0
4096
-4096
8192
0
4096
-4096
8192
0
4096
-4096
8192
0
4096
-4096
8192
0
4096
-4096
8192
0
4096
-4096
8192
0
4096
-4096
8192
0
4096
-4096
8192
0
4096
-4096
8192
0
4096
-4096
8192
0
4096
-4096
8192
0
4096
-4096
8192
0
4096
-4096
8192
0
4096
-4096
8192
0
4096
-4096
8192
0
4096
-4096
8192
0
4096
-4096
8192
0
4096
-4096
8192
0
4096
-4096
8192
0
4096
-4096
8192
0
4096
-4096
8192
0
4096
-4096
8192
0
4096
-4096
8192
0
4096
-4096
8192
0
4096
-4096
8192
0
4096
-4096
8192
0
4096
-4096
8192
0
4096
-4096
8192
0
4096
-4096
8192
0
4096
-4096
8192
0
4096
-4096
8192
0
4096
-4096
8192
0
4096
-4096
8192
0
4096
-4096
8192
0
4096
-4096
8192
0
4096
-4096
8192
0
4096
-4096
8192
0
4096
-4096
8192
0
4096
-4096
8192
0
4096
-4096
8192
0
4096
-4096
8192
0
4096
-4096
8192
0
4096
-4096
8192
0
4096
-4096
8192
0
4096
-4096
8192
0
4096
-4096
8192
0
4096
-4096
8192
0
4096
-4096
8192
0
4096
-4096
8192
0
4096
-4096
8192
0
4096
-4096
8192
0
4096
-4096
8192
0
4096
-4096
8192
0
4096
-4096
8192
0
4096
-4096
8192
0
4096
-4096
8192
0
4096
-4096
8192
0
4096
-4096
8192
0
4096
-4096
8192
0
4096
-4096
8192
0
4096
-4096
8192
0
4096
-4096
8192
0
4096
-4096
8192
0
4096
-4096
8192
0
4096
-4096
8192
0
4096
-4096
8192
0
4096
-4096
8192
0
4096
-4096
8192
0
4096
-4096
8192
0
4096
-4096
8192
0
4096
-4096
8192
0
4096
-4096
8192
0
4096
-4096
8192
0
4096
-4096
8192
0
4096
-4096
8192
0
4096
-4096
8192
0
4096
-4096
8192
0
4096
-4096
8192
0
4096
-4096
8192
0
4096
-4096
8192
0
4096
-4096
8192
0
4096
-4096
8192
0
4096
-4096
8192
0
4096
-4096
8192
0
4096
-4096
8192
0
4096
-4096
8192
0
4096
-4096
8192
0
4096
-4096
8192
0
4096
-4096
8192
0
4096
-4096
8192
0
4096
-4096
8192
0
4096
-4096
8192
0
4096
-4096
8192
0
4096
-4096
8192
0
4096
-4096
8192
0
4096
-4096
8192
0
4096
-4096
8192
0
4096
-4096
8192
0
4096
-4096
8192
0
4096
-4096
8192
0
4096
-4096
8192
0
4096
-4096
8192
0
4096
-4096
8192
0
4096
-4096
8192
0
4096
-4096
8192
0
4096
-4096
8192
0
4096
-4096
8192
0
4096
-4096
8192
0
4096
-4096
8192
0
4096
-4096
8192
0
4096
-4096
8192
0
4096
-4096
8192
0
4096
-4096
8192
0
4096
-4096
8192
0
4096
-4096
8192
0
4096
-4096
8192
0
4096
-4096
8192
0
4096
-4096
8192
0
4096
-4096
8192
0
4096
-4096
8192
0
4096
-4096
8192
0
4096
-4096
8192
0
4096
-4096
8192
0
4096
-4096
8192
0
4096
-4096
8192
0
4096
-4096
8192
0
4096
-4096
8192
0
4096
-4096
8192
0
4096
-4096
8192
0
4096
-4096
8192
0
4096
-4096
8192
0
4096
-4096
8192
0
4096
-4096
8192
0
4096
-4096
8192
0
4096
-4096
8192
0
4096
-4096
8192
0
4096
-4096
8192
0
4096
-4096
8192
0
4096
-4096
8192
0
4096
-4096
8192
0
4096
-4096
8192
0
4096
-4096
8192
0
4096
-4096
8192
0
4096
-4096
8192
0
4096
-4096
8192
0
4096
-4096
8192
0
4096
-4096
8192
0
4096
-4096
8192
0
4096
-4096
8192
0
4096
-4096
8192
0
4096
-4096
8192
0
4096
-4096
8192
0
4096
-4096
8192
0
4096
-4096
8192
0
4096
-4096
8192
0
4096
-4096
8192
0
4096
-4096
8192
0
4096
-4096
8192
0
4096
-4096
8192
0
4096
-4096
8192
0
4096
-4096
8192
0
4096
-4096
8192
0
4096
-4096
8192
0
4096
-4096
8192
0
4096
-4096
8192
0
4096
-4096
8192
0
4096
-4096
8192
0
4096
-4096
8192
0
4096
-4096
8192
0
4096
-4096
8192
0
4096
-4096
8192
0
4096
-4096
8192
0
4096
-4096
8192
0
4096
-4096
8192
0
4096
-4096
8192
0
4096
-4096
8192
0
4096
-4096
8192
0
4096
-4096
8192
0
4096
-4096
8192
0
4096
-4096
8192
0
4096
-4096
8192
0
4096
-4096
8192
0
4096
-4096
8192
0
4096
-4096
8192
0
4096
-4096
8192
0
4096
-4096
8192
0
4096
-4096
8192
0
4096
-4096
8192
0
4096
-4096
8192
0
4096
-4096
8192
0
4096
-4096
8192
0
4096
-4096
8192
0
4096
-4096
8192
0
4096
-4096
8192
0
4096
-4096
8192
0
4096
-4096
8192
0
4096
-4096
8192
0
4096
-4096
8192
0
4096
-4096
8192
0
4096
-4096
8192
0
4096
-4096
8192
0
4096
-4096
8192
0
4096
-4096
8192
0
4096
-4096
8192
0
4096
-4096
8192
0
4096
-4096
8192
0
4096
-4096
8192
0
4096
-4096
8192
0
4096
-4096
8192
0
4096
-4096
8192
0
4096
-4096
8192
0
4096
-4096
8192
0
4096
-4096
8192
0
4096
-4096
8192
0
4096
-4096
8192
0
4096
-4096
8192
0
4096
-4096
8192
0
4096
-4096
8192
0
4096
-4096
8192
0
4096
-4096
8192
0
4096
-4096
8192
0
4096
-4096
8192
0
4096
-4096
8192
0
4096
-4096
8192
0
4096
-4096
8192
0
4096
-4096
8192
0
4096
-4096
8192
0
4096
-4096
8192
0
4096
-4096
8192
0
4096
-4096
8192
0
4096
-4096
8192
0
4096
-4096
8192
0
4096
-4096
8192
0
4096
-4096
8192
0
4096
-4096
8192
0
4096
-4096
8192
0
4096
-4096
8192
0
4096
-4096
8192
0
4096
-4096
8192
0
4096
-4096
8192
0
4096
-4096
8192
0
4096
-4096
8192
0
4096
-4096
8192
0
4096
-4096
8192
0
4096
-4096
8192
0
4096
-4096
8192
0
4096
-4096
8192
0
4096
-4096
8192
0
4096
-4096
8192
0
4096
-4096
8192
0
4096
-4096
8192
0
4096
-4096
8192
0
4096
-4096
8192
0
4096
-4096
8192
0
4096
-4096
8192
0
4096
-4096
8192
0
4096
-4096
8192
0
4096
-4096
8192
0
4096
-4096
8192
0
4096
-4096
8192
0
4096
-4096
8192
0
4096
-4096
8192
0
4096
-4096
8192
0
4096
-4096
8192
0
4096
-4096
8192
0
4096
-4096
8192
0
4096
-4096
8192
0
4096
-4096
8192
0
4096
-4096
8192
0
4096
-4096
8192
0
4096
-4096
8192
0
4096
-4096
8192
0
4096
-4096
8192
0
4096
-4096
8192
0
4096
-4096
8192
0
4096
-4096
8192
0
4096
-4096
8192
0
4096
-4096
8192
0
4096
-4096
8192
0
4096
-4096
8192
0
4096
-4096
8192
0
4096
-4096
8192
0
4096
-4096
8192
0
4096
-4096
8192
0
4096
-4096
8192
0
4096
-4096
8192
0
4096
-4096
8192
0
4096
-4096
8192
0
4096
-4096
8192
0
4096
-4096
8192
0
4096
-4096
8192
0
4096
-4096
8192
0
4096
-4096
8192
0
4096
-4096
8192
0
4096
-4096
8192
0
4096
-4096
8192
0
4096
-4096
8192
0
4096
-4096
8192
0
4096
-4096
8192
0
4096
-4096
8192
0
4096
-4096
8192
0
4096
-4096
8192
0
4096
-4096
8192
0
4096
-4096
8192
0
4096
-4096
8192
0
4096
-4096
8192
0
4096
-4096
8192
0
4096
-4096
8192
0
4096
-4096
8192
0
4096
-4096
8192
0
4096
-4096
8192
0
4096
-4096
8192
0
4096
-4096
8192
0
4096
-4096
8192
0
4096
-4096
8192
0
4096
-4096
8192
0
4096
-4096
8192
0
4096
-4096
8192
0
4096
-4096
8192
0
4096
-4096
8192
0
4096
-4096
8192
0
4096
-4096
8192
0
4096
-4096
8192
0
4096
-4096
8192
0
4096
-4096
8192
0
4096
-4096
8192
0
4096
-4096
8192
0
4096
-4096
8192
0
4096
-4096
8192
0
4096
-4096
8192
0
4096
-4096
8192
0
4096
-4096
8192
0
4096
-4096
8192
0
4096
-4096
8192
0
4096
-4096
8192
0
4096
-4096
8192
0
4096
-4096
8192
0
4096
-4096
8192
0
4096
-4096
8192
0
4096
-4096
8192
0
4096
-4096
8192
0
4096
-4096
8192
0
4096
-4096
8192
0
4096
-4096
8192
0
4096
-4096
8192
0
4096
-4096
8192
0
4096
-4096
8192
0
4096
-4096
8192
0
4096
-4096
8192
0
4096
-4096
8192
0
4096
-4096
8192
0
4096
-4096
8192
0
4096
-4096
8192
0
4096
-4096
8192
0
4096
-4096
8192
0
4096
-4096
8192
0
4096
-4096
8192
0
4096
-4096
8192
0
4096
-4096
8192
0
4096
-4096
8192
0
4096
-4096
8192
0
4096
-4096
8192
0
4096
-4096
8192
0
4096
-4096
8192
0
4096
-4096
8192
0
4096
-4096
8192
0
4096
-4096
8192
0
4096
-4096
8192
0
4096
-4096
8192
0
4096
-4096
8192
0
4096
-4096
8192
0
4096
-4096
8192
0
4096
-4096
8192
0
4096
-4096
8192
0
4096
-4096
8192
0
4096
-4096
8192
0
4096
-4096
8192
0
4096
-4096
8192
0
4096
-4096
8192
0
4096
-4096
8192
0
4096
-4096
8192
0
4096
-4096
8192
0
4096
-4096
8192
0
4096
-4096
8192
0
4096
-4096
8192
0
4096
-4096
8192
0
4096
-4096
8192
0
4096
-4096
8192
0
4096
-4096
8192
0
4096
-4096
8192
0
4096
-4096
8192
0
4096
-4096
8192
0
4096
-4096
8192
0
4096
-4096
8192
0
4096
-4096
8192
0
4096
-4096
8192
0
4096
-4096
8192
0
4096
-4096
8192
0
4096
-4096
8192
0
4096
-4096
8192
0
4096
-4096
8192
0
4096
-4096
8192
0
4096
-4096
8192
0
4096
-4096
8192
0
4096
-4096
8192
0
4096
-4096
8192
0
4096
-4096
8192
0
4096
-4096
8192
0
4096
-4096
8192
0
4096
-4096
8192
0
4096
-4096
8192
0
4096
-4096
8192
0
4096
-4096
8192
0
4096
-4096
8192
0
4096
-4096
8192
0
4096
-4096
8192
0
4096
-4096
8192
0
4096
-4096
8192
0
4096
-4096
8192
0
4096
-4096
8192
0
4096
-4096
8192
0
4096
-4096
8192
0
4096
-4096
8192
0
4096
-4096
8192
0
4096
-4096
8192
0
4096
-4096
8192
0
4096
-4096
8192
0
4096
-4096
8192
0
4096
-4096
8192
0
4096
-4096
8192
0
4096
-4096
8192
0
4096
-4096
8192
0
4096
-4096
8192
0
4096
-4096
8192
0
4096
-4096
8192
0
4096
-4096
8192
0
4096
-4096
8192
0
4096
-4096
8192
0
4096
-4096
8192
0
4096
-4096
8192
0
4096
-4096
8192
0
4096
-4096
8192
0
4096
-4096
8192
0
4096
-4096
8192
0
4096
-4096
8192
0
4096
-4096
8192
0
4096
-4096
8192
0
4096
-4096
8192
0
4096
-4096
8192
0
4096
-4096
8192
0
4096
-4096
8192
0
4096
-4096
8192
0
4096
-4096
8192
0
4096
-4096
8192
0
4096
-4096
8192
0
4096
-4096
8192
0
4096
-4096
8192
0
4096
-4096
8192
0
4096
-4096
8192
0
4096
-4096
8192
0
4096
-4096
8192
0
4096
-4096
8192
0
4096
-4096
8192
0
4096
-4096
8192
0
4096
-4096
8192
0
4096
-4096
8192
0
4096
-4096
8192
0
4096
-4096
8192
0
4096
-4096
8192
0
4096
-4096
8192
0
4096
-4096
8192
0
4096
-4096
8192
0
4096
-4096
8192
0
4096
-4096
8192
0
4096
-4096
8192
0
4096
-4096
8192
0
4096
-4096
8192
0
4096
-4096
8192
0
4096
-4096
8192
0
4096
-4096
8192
0
4096
-4096
8192
0
4096
-4096
8192
0
4096
-4096
8192
0
4096
-4096
8192
0
4096
-4096
8192
0
4096
-4096
8192
0
4096
-4096
8192
0
4096
-4096
8192
0
4096
-4096
8192
0
4096
-4096
8192
0
4096
-4096
8192
0
4096
-4096
8192
0
4096
-4096
8192
0
4096
-4096
8192
0
4096
-4096
8192
0
4096
-4096
8192
0
4096
-4096
8192
0
4096
-4096
8192
0
4096
-4096
8192
0
4096
-4096
8192
0
4096
-4096
8192
0
4096
-4096
8192
0
4096
-4096
8192
0
4096
-4096
8192
0
4096
-4096
8192
0
4096
-4096
8192
0
4096
-4096
8192
0
4096
-4096
8192
0
4096
-4096
8192
0
4096
-4096
8192
0
4096
-4096
8192
0
4096
-4096
8192
0
4096
-4096
8192
0
4096
-4096
8192
0
4096
-4096
8192
0
4096
-4096
8192
0
4096
-4096
8192
0
4096
-4096
8192
0
4096
-4096
8192
0
4096
-4096
8192
0
4096
-4096
8192
0
4096
-4096
8192
0
4096
-4096
8192
0
4096
-4096
8192
0
4096
-4096
8192
0
4096
-4096
8192
0
4096
-4096
8192
0
4096
-4096
8192
0
4096
-4096
8192
0
4096
-4096
8192
0
4096
-4096
8192
0
4096
-4096
8192
0
4096
-4096
8192
0
4096
-4096
8192
0
4096
-4096
8192
0
4096
-4096
8192
0
4096
-4096
8192
0
4096
-4096
8192
0
4096
-4096
8192
0
4096
-4096
8192
0
4096
-4096
8192
0
4096
-4096
8192
0
4096
-4096
8192
0
4096
-4096
8192
0
4096
-4096
8192
0
4096
-4096
8192
0
4096
-4096
8192
0
4096
-4096
8192
0
4096
-4096
8192
0
4096
-4096
8192
0
4096
-4096
8192
0
4096
-4096
8192
0
4096
-4096
8192
0
4096
-4096
8192
0
4096
-4096
8192
0
4096
-4096
8192
0
4096
-4096
8192
0
4096
-4096
8192
0
4096
-4096
8192
0
4096
-4096
8192
0
4096
-4096
8192
0
4096
-4096
8192
0
4096
-4096
8192
0
4096
-4096
8192
0
4096
-4096
8192
0
4096
-4096
8192
0
4096
-4096
8192
0
4096
-4096
8192
0
4096
-4096
8192
0
4096
-4096
8192
0
4096
-4096
8192
0
4096
-4096
8192
0
4096
-4096
8192
0
4096
-4096
8192
0
4096
-4096
8192
0
4096
-4096
8192
0
4096
-4096
8192
0
4096
-4096
8192
0
4096
-4096
8192
0
4096
-4096
8192
0
4096
-4096
8192
0
4096
-4096
8192
0
4096
-4096
8192
0
4096
-4096
8192
0
4096
-4096
8192
0
4096
-4096
8192
0
4096
-4096
8192
0
4096
-4096
8192
0
4096
-4096
8192
0
4096
-4096
8192
0
4096
-4096
8192
0
4096
-4096
8192
0
4096
-4096
8192
0
4096
-4096
8192
0
4096
-4096
8192
0
4096
-4096
8192
0
4096
-4096
8192
0
4096
-4096
8192
0
4096
-4096
8192
0
4096
-4096
8192
0
4096
-4096
8192
0
4096
-4096
8192
0
4096
-4096
8192
0
4096
-4096
8192
0
4096
-4096
8192
0
4096
-4096
8192
0
4096
-4096
8192
0
4096
-4096
8192
0
4096
-4096
8192
0
4096
-4096
8192
0
4096
-4096
8192
0
4096
-4096
8192
0
4096
-4096
8192
0
4096
-4096
8192
0
4096
-4096
8192
0
4096
-4096
8192
0
4096
-4096
8192
0
4096
-4096
8192
0
4096
-4096
8192
0
4096
-4096
8192
0
4096
-4096
8192
0
4096
-4096
8192
0
4096
-4096
8192
0
4096
-4096
8192
0
4096
-4096
8192
0
4096
-4096
8192
0
4096
-4096
8192
0
4096
-4096
8192
0
4096
-4096
8192
0
4096
-4096
8192
0
4096
-4096
8192
0
4096
-4096
8192
0
4096
-4096
8192
0
4096
-4096
8192
0
4096
-4096
8192
0
4096
-4096
8192
0
4096
-4096
8192
0
4096
-4096
8192
0
4096
-4096
8192
0
4096
-4096
8192
0
4096
-4096
8192
0
4096
-4096
8192
0
4096
-4096
8192
0
4096
-4096
8192
0
4096
-4096
8192
0
4096
-4096
8192
0
4096
-4096
8192
0
4096
-4096
8192
0
4096
-4096
8192
0
4096
-4096
8192
0
4096
-4096
8192
0
4096
-4096
8192
0
4096
-4096
8192
0
4096
-4096
8192
0
4096
-4096
8192
0
4096
-4096
8192
0
4096
-4096
8192
0
4096
-4096
8192
0
4096
-4096
8192
0
4096
-4096
8192
0
4096
-4096
8192
0
4096
-4096
8192
0
4096
-4096
8192
0
4096
-4096
8192
0
4096
-4096
8192
0
4096
-4096
8192
0
4096
-4096
8192
0
4096
-4096
8192
0
4096
-4096
8192
0
4096
-4096
8192
0
4096
-4096
8192
0
4096
-4096
8192
0
4096
-4096
8192
0
4096
-4096
8192
0
4096
-4096
8192
0
4096
-4096
8192
0
4096
-4096
8192
0
4096
-4096
8192
0
4096
-4096
8192
0
4096
-4096
8192
0
4096
-4096
8192
0
4096
-4096
8192
0
4096
-4096
8192
0
4096
-4096
8192
0
4096
-4096
8192
0
4096
-4096
8192
0
4096
-4096
8192
0
4096
-4096
8192
0
4096
-4096
8192
0
4096
-4096
8192
0
4096
-4096
8192
0
4096
-4096
8192
0
4096
-4096
8192
0
4096
-4096
8192
0
4096
-4096
8192
0
4096
-4096
8192
0
4096
-4096
8192
0
4096
-4096
8192
0
4096
-4096
8192
0
4096
-4096
8192
0
4096
-4096
8192
0
4096
-4096
8192
0
4096
-4096
8192
0
4096
-4096
8192
0
4096
-4096
8192
0
4096
-4096
8192
0
4096
-4096
8192
0
4096
-4096
8192
0
4096
-4096
8192
0
4096
-4096
8192
0
4096
-4096
8192
0
4096
-4096
8192
0
4096
-4096
8192
0
4096
-4096
8192
0
4096
-4096
8192
0
4096
-4096
8192
0
4096
-4096
8192
0
4096
-4096
8192
0
4096
-4096
8192
0
4096
-4096
8192
0
4096
-4096
8192
0
4096
-4096
8192
0
4096
-4096
8192
0
4096
-4096
8192
0
4096
-4096
8192
0
4096
-4096
8192
0
4096
-4096
8192
0
4096
-4096
8192
0
4096
-4096
8192
0
4096
-4096
8192
0
4096
-4096
8192
0
4096
-4096
8192
0
4096
-4096
8192
0
4096
-4096
8192
0
4096
-4096
8192
0
4096
-4096
8192
0
4096
-4096
8192
0
4096
-4096
8192
0
4096
-4096
8192
0
4096
-4096
8192
0
4096
-4096
8192
0
4096
-4096
8192
0
4096
-4096
8192
0
4096
-4096
8192
0
4096
-4096
8192
0
4096
-4096
8192
0
4096
-4096
8192
0
4096
-4096
8192
0
4096
-4096
8192
0
4096
-4096
8192
0
4096
-4096
8192
0
4096
-4096
8192
0
4096
-4096
8192
0
4096
-4096
8192
0
4096
-4096
8192
0
4096
-4096
8192
0
4096
-4096
8192
0
4096
-4096
8192
0
4096
-4096
8192
0
4096
-4096
8192
0
4096
-4096
8192
0
4096
-4096
8192
0
4096
-4096
8192
0
4096
-4096
8192
0
4096
-4096
8192
0
4096
-4096
8192
0
4096
-4096
8192
0
4096
-4096
8192
0
4096
-4096
8192
0
4096
-4096
8192
0
4096
-4096
8192
0
4096
-4096
8192
0
4096
-4096
8192
0
4096
-4096
8192
0
4096
-4096
8192
0
4096
-4096
8192
0
4096
-4096
8192
0
4096
-4096
8192
0
4096
-4096
8192
0
4096
-4096
8192
0
4096
-4096
8192
0
4096
-4096
8192
0
4096
-4096
8192
0
4096
-4096
8192
0
4096
-4096
8192
0
4096
-4096
8192
0
4096
-4096
8192
0
4096
-4096
8192
0
4096
-4096
8192
0
4096
-4096
8192
0
4096
-4096
8192
0
4096
-4096
8192
0
4096
-4096
8192
0
4096
-4096
8192
0
4096
-4096
8192
0
4096
-4096
8192
0
4096
-4096
8192
0
4096
-4096
8192
0
4096
-4096
8192
0
4096
-4096
8192
0
4096
-4096
8192
0
4096
-4096
8192
0
4096
-4096
8192
0
4096
-4096
8192
0
4096
-4096
8192
0
4096
-4096
8192
0
4096
-4096
8192
0
4096
-4096
8192
0
4096
-4096
8192
0
4096
-4096
8192
0
4096
-4096
8192
0
4096
-4096
8192
0
4096
-4096
8192
0
4096
-4096
8192
0
4096
-4096
8192
0
4096
-4096
8192
0
4096
-4096
8192
0
4096
-4096
8192
0
4096
-4096
8192
0
4096
-4096
8192
0
4096
-4096
8192
0
4096
-4096
8192
0
4096
-4096
8192
0
4096
-4096
8192
0
4096
-4096
8192
0
4096
-4096
8192
0
4096
-4096
8192
0
4096
-4096
8192
0
4096
-4096
8192
0
4096
-4096
8192
0
4096
-4096
8192
0
4096
-4096
8192
0
4096
-4096
8192
0
4096
-4096
8192
0
4096
-4096
8192
0
4096
-4096
8192
0
4096
-4096
8192
0
4096
-4096
8192
0
4096
-4096
8192
0
4096
-4096
8192
0
4096
-4096
8192
0
4096
-4096
8192
0
4096
-4096
8192
0
4096
-4096
8192
0
4096
-4096
8192
0
4096
-4096
8192
0
4096
-4096
8192
0
4096
-4096
8192
0
4096
-4096
8192
0
4096
-4096
8192
0
4096
-4096
8192
0
4096
-4096
8192
0
4096
-4096
8192
0
4096
-4096
8192
0
4096
-4096
8192
0
4096
-4096
8192
0
4096
-4096
8192
0
4096
-4096
8192
0
4096
-4096
8192
0
4096
-4096
8192
0
4096
-4096
8192
0
4096
-4096
8192
0
4096
-4096
8192
0
4096
-4096
8192
0
4096
-4096
8192
0
4096
-4096
8192
0
4096
-4096
8192
0
4096
-4096
8192
0
4096
-4096
8192
0
4096
-4096
8192
0
4096
-4096
8192
0
4096
-4096
8192
0
4096
-4096
8192
0
4096
-4096
8192
0
4096
-4096
8192
0
4096
-4096
8192
0
4096
-4096
8192
0
4096
-4096
8192
0
4096
-4096
8192
0
4096
-4096
8192
0
4096
-4096
8192
0
4096
-4096
8192
0
4096
-4096
8192
0
4096
-4096
8192
0
4096
-4096
8192
0
4096
-4096
8192
0
4096
-4096
8192
0
4096
-4096
8192
0
4096
-4096
8192
0
4096
-4096
8192
0
4096
-4096
8192
0
4096
-4096
8192
0
4096
-4096
8192
0
4096
-4096
8192
0
4096
-4096
8192
0
4096
-4096
8192
0
4096
-4096
8192
0
4096
-4096
8192
0
4096
-4096
8192
0
4096
-4096
8192
0
4096
-4096
8192
0
4096
-4096
8192
0
4096
-4096
8192
0
4096
-4096
8192
0
4096
-4096
8192
0
4096
-4096
8192
0
4096
-4096
8192
0
4096
-4096
8192
0
4096
-4096
8192
0
4096
-4096
8192
0
4096
-4096
8192
0
4096
-4096
8192
0
4096
-4096
8192
0
4096
-4096
8192
0
4096
-4096
8192
0
4096
-4096
8192
0
4096
-4096
8192
0
4096
-4096
8192
0
4096
-4096
8192
0
4096
-4096
8192
0
4096
-4096
8192
0
4096
-4096
8192
0
4096
-4096
8192
0
4096
-4096
8192
0
4096
-4096
8192
0
4096
-4096
8192
0
4096
-4096
8192
0
4096
-4096
8192
0
4096
-4096
8192
0
4096
-4096
8192
0
4096
-4096
8192
0
4096
-4096
8192
0
4096
-4096
8192
0
4096
-4096
8192
0
4096
-4096
8192
0
4096
-4096
8192
0
4096
-4096
8192
0
4096
-4096
8192
0
4096
-4096
8192
0
4096
-4096
8192
0
4096
-4096
8192
0
4096
-4096
8192
0
4096
-4096
8192
0
4096
-4096
8192
0
4096
-4096
8192
0
4096
-4096
8192
0
4096
-4096
8192
0
4096
-4096
8192
0
4096
-4096
8192
0
4096
-4096
8192
0
4096
-4096
8192
0
4096
-4096
8192
0
4096
-4096
8192
0
4096
-4096
8192
0
4096
-4096
8192
0
4096
-4096
8192
0
4096
-4096
8192
0
4096
-4096
8192
0
4096
-4096
8192
0
4096
-4096
8192
0
4096
-4096
8192
0
4096
-4096
8192
0
4096
-4096
8192
0
4096
-4096
8192
0
4096
-4096
8192
0
4096
-4096
8192
0
4096
-4096
8192
0
4096
-4096
8192
0
4096
-4096
8192
0
4096
-4096
8192
0
4096
-4096
8192
0
4096
-4096
8192
0
4096
-4096
8192
0
4096
-4096
8192
0
4096
-4096
8192
0
4096
-4096
8192
0
4096
-4096
8192
0
4096
-4096
8192
0
4096
-4096
8192
0
4096
-4096
8192
0
4096
-4096
8192
0
4096
-4096
8192
0
4096
-4096
8192
0
4096
-4096
8192
0
4096
-4096
8192
0
4096
-4096
8192
0
4096
-4096
8192
0
4096
-4096
8192
0
4096
-4096
8192
0
4096
-4096
8192
0
4096
-4096
8192
0
4096
-4096
8192
0
4096
-4096
8192
0
4096
-4096
8192
0
4096
-4096
8192
0
4096
-4096
8192
0
4096
-4096
8192
0
4096
-4096
8192
0
4096
-4096
8192
0
4096
-4096
8192
0
4096
-4096
8192
0
4096
-4096
8192
0
4096
-4096
8192
0
4096
-4096
8192
0
4096
-4096
8192
0
4096
-4096
8192
0
4096
-4096
8192
0
4096
-4096
8192
0
4096
-4096
8192
0
4096
-4096
8192
0
4096
-4096
8192
0
4096
-4096
8192
0
4096
-4096
8192
0
4096
-4096
8192
0
4096
-4096
8192
0
4096
-4096
8192
0
4096
-4096
8192
0
4096
-4096
8192
0
4096
-4096
8192
0
4096
-4096
8192
0
4096
-4096
8192
0
4096
-4096
8192
0
4096
-4096
8192
0
4096
-4096
8192
0
4096
-4096
8192
0
4096
-4096
8192
0
4096
-4096
8192
0
4096
-4096
8192
0
4096
-4096
8192
0
4096
-4096
8192
0
4096
-4096
8192
0
4096
-4096
8192
0
4096
-4096
8192
0
4096
-4096
8192
0
4096
-4096
8192
0
4096
-4096
8192
0
4096
-4096
8192
0
4096
-4096
8192
0
4096
-4096
8192
0
4096
-4096
8192
0
4096
-4096
8192
0
4096
-4096
8192
0
4096
-4096
8192
0
4096
-4096
8192
0
4096
-4096
8192
0
4096
-4096
8192
0
4096
-4096
8192
0
4096
-4096
8192
0
4096
-4096
8192
0
4096
-4096
8192
0
4096
-4096
8192
0
4096
-4096
8192
0
4096
-4096
8192
0
4096
-4096
8192
0
4096
-4096
8192
0
4096
-4096
8192
0
4096
-4096
8192
0
4096
-4096
8192
0
4096
-4096
8192
0
4096
-4096
8192
0
4096
-4096
8192
0
4096
-4096
8192
0
4096
-4096
8192
0
4096
-4096
8192
0
4096
-4096
8192
0
4096
-4096
8192
0
4096
-4096
8192
0
4096
-4096
8192
0
4096
-4096
8192
0
4096
-4096
8192
0
4096
-4096
8192
0
4096
-4096
8192
0
4096
-4096
8192
0
4096
-4096
8192
0
4096
-4096
8192
0
4096
-4096
8192
0
4096
-4096
8192
0
4096
-4096
8192
0
4096
-4096
8192
0
4096
-4096
8192
0
4096
-4096
8192
0
4096
-4096
8192
0
4096
-4096
8192
0
4096
-4096
8192
0
4096
-4096
8192
0
4096
-4096
8192
0
4096
-4096
8192
0
4096
-4096
8192
0
4096
-4096
8192
0
4096
-4096
8192
0
4096
-4096
8192
0
4096
-4096
8192
0
4096
-4096
8192
0
4096
-4096
8192
0
4096
-4096
8192
0
4096
-4096
8192
0
4096
-4096
8192
0
4096
-4096
8192
0
4096
-4096
8192
0
4096
-4096
8192
0
4096
-4096
8192
0
4096
-4096
8192
0
4096
-4096
8192
0
4096
-4096
8192
0
4096
-4096
8192
0
4096
-4096
8192
0
4096
-4096
8192
0
4096
-4096
8192
0
4096
-4096
8192
0
4096
-4096
8192
0
4096
-4096
8192
0
4096
-4096
8192
0
4096
-4096
8192
0
4096
-4096
8192
0
4096
-4096
8192
0
4096
-4096
8192
0
4096
-4096
8192
0
4096
-4096
8192
0
4096
-4096
8192
0
4096
-4096
8192
0
4096
-4096
8192
0
4096
-4096
8192
0
4096
-4096
8192
0
4096
-4096
8192
0
4096
-4096
8192
0
4096
-4096
8192
0
4096
-4096
8192
0
4096
-4096
8192
0
4096
-4096
8192
0
4096
-4096
8192
0
4096
-4096
8192
0
4096
-4096
8192
0
4096
-4096
8192
0
4096
-4096
8192
0
4096
-4096
8192
0
4096
-4096
8192
0
4096
-4096
8192
0
4096
-4096
8192
0
4096
-4096
8192
0
4096
-4096
8192
0
4096
-4096
8192
0
4096
-4096
8192
0
4096
-4096
8192
0
4096
-4096
8192
0
4096
-4096
8192
0
4096
-4096
8192
0
4096
-4096
8192
0
4096
-4096
8192
0
4096
-4096
8192
0
4096
-4096
8192
0
4096
-4096
8192
0
4096
-4096
8192
0
4096
-4096
8192
0
4096
-4096
8192
0
4096
-4096
8192
0
4096
-4096
8192
0
4096
-4096
8192
0
4096
-4096
8192
0
4096
-4096
8192
0
4096
-4096
8192
0
4096
-4096
8192
0
4096
-4096
8192
0
4096
-4096
8192
0
4096
-4096
8192
0
4096
-4096
8192
0
4096
-4096
8192
0
4096
-4096
8192
0
4096
-4096
8192
0
4096
-4096
8192
0
4096
-4096
8192
0
4096
-4096
8192
0
4096
-4096
8192
0
4096
-4096
8192
0
4096
-4096
8192
0
4096
-4096
8192
0
4096
-4096
8192
0
4096
-4096
8192
0
4096
-4096
8192
0
4096
-4096
8192
0
4096
-4096
8192
0
4096
-4096
8192
0
4096
-4096
8192
0
4096
-4096
8192
0
4096
-4096
8192
0
4096
-4096
8192
0
4096
-4096
8192
0
4096
-4096
8192
0
4096
-4096
8192
0
4096
-4096
8192
0
4096
-4096
8192
0
4096
-4096
8192
0
4096
-4096
8192
0
4096
-4096
8192
0
4096
-4096
8192
0
4096
-4096
8192
0
4096
-4096
8192
0
4096
-4096
8192
0
4096
-4096
8192
0
4096
-4096
8192
0
4096
-4096
8192
0
4096
-4096
8192
0
4096
-4096
8192
0
4096
-4096
8192
0
4096
-4096
8192
0
4096
-4096
8192
0
4096
-4096
8192
0
4096
-4096
8192
0
4096
-4096
8192
0
4096
-4096
8192
0
4096
-4096
8192
0
4096
-4096
8192
0
4096
-4096
8192
0
4096
-4096
8192
0
4096
-4096
8192
0
4096
-4096
8192
0
4096
-4096
8192
0
4096
-4096
8192
0
4096
-4096
8192
0
4096
-4096
8192
0
4096
-4096
8192
0
4096
-4096
8192
0
4096
-4096
8192
0
4096
-4096
8192
0
4096
-4096
8192
0
4096
-4096
8192
0
4096
-4096
8192
0
4096
-4096
8192
0
4096
-4096
8192
0
4096
-4096
8192
0
4096
-4096
8192
0
4096
-4096
8192
0
4096
-4096
8192
0
4096
-4096
8192
0
4096
-4096
8192
0
4096
-4096
8192
0
4096
-4096
8192
0
4096
-4096
8192
0
4096
-4096
8192
0
4096
-4096
8192
0
4096
-4096
8192
0
4096
-4096
8192
0
4096
-4096
8192
0
4096
-4096
8192
0
4096
-4096
8192
0
4096
-4096
8192
0
4096
-4096
8192
0
4096
-4096
8192
0
4096
-4096
8192
0
4096
-4096
8192
0
4096
-4096
8192
0
4096
-4096
8192
0
4096
-4096
8192
0
4096
-4096
8192
0
4096
-4096
8192
0
4096
-4096
8192
0
4096
-4096
8192
0
4096
-4096
8192
0
4096
-4096
8192
0
4096
-4096
8192
0
4096
-4096
8192
0
4096
-4096
8192
0
4096
-4096
8192
0
4096
-4096
8192
0
4096
-4096
8192
0
4096
-4096
8192
0
4096
-4096
8192
0
4096
-4096
8192
0
4096
-4096
8192
0
4096
-4096
8192
0
4096
-4096
8192
0
4096
-4096
8192
0
4096
-4096
8192
0
4096
-4096
8192
0
4096
-4096
8192
0
4096
-4096
8192
0
4096
-4096
8192
0
4096
-4096
8192
0
4096
-4096
8192
0
4096
-4096
8192
0
4096
-4096
8192
0
4096
-4096
8192
0
4096
-4096
8192
0
4096
-4096
8192
0
4096
-4096
8192
0
4096
-4096
8192
0
4096
-4096
8192
0
4096
-4096
8192
0
4096
-4096
8192
0
4096
-4096
8192
0
4096
-4096
8192
0
4096
-4096
8192
0
4096
-4096
8192
0
4096
-4096
8192
0
4096
-4096
8192
0
4096
-4096
8192
0
4096
-4096
8192
0
4096
-4096
8192
0
4096
-4096
8192
0
4096
-4096
8192
0
4096
-4096
8192
0
4096
-4096
8192
0
4096
-4096
8192
0
4096
-4096
8192
0
4096
-4096
8192
0
4096
-4096
8192
0
4096
-4096
8192
0
4096
-4096
8192
0
4096
-4096
8192
0
4096
-4096
8192
0
4096
-4096
8192
0
4096
-4096
8192
0
4096
-4096
8192
0
4096
-4096
8192
0
4096
-4096
8192
0
4096
-4096
8192
0
4096
-4096
8192
0
4096
-4096
8192
0
4096
-4096
8192
0
4096
-4096
8192
0
4096
-4096
8192
0
4096
-4096
8192
0
4096
-4096
8192
0
4096
-4096
8192
0
4096
-4096
8192
0
4096
-4096
8192
0
4096
-4096
8192
0
4096
-4096
8192
0
4096
-4096
8192
0
4096
-4096
8192
0
4096
-4096
8192
0
4096
-4096
8192
0
4096
-4096
8192
0
4096
-4096
8192
0
4096
-4096
8192
0
4096
-4096
8192
0
4096
-4096
8192
0
4096
-4096
8192
0
4096
-4096
8192
0
4096
-4096
8192
0
4096
-4096
8192
0
4096
-4096
8192
0
4096
-4096
8192
0
4096
-4096
8192
0
4096
-4096
8192
0
4096
-4096
8192
0
4096
-4096
8192
0
4096
-4096
8192
0
4096
-4096
8192
0
4096
-4096
8192
0
4096
-4096
8192
0
4096
-4096
8192
0
4096
-4096
8192
0
4096
-4096
8192
0
4096
-4096
8192
0
4096
-4096
8192
0
4096
-4096
8192
0
4096
-4096
8192
0
4096
-4096
8192
0
4096
-4096
8192
0
4096
-4096
8192
0
4096
-4096
8192
0
4096
-4096
8192
0
4096
-4096
8192
0
4096
-4096
8192
0
4096
-4096
8192
0
4096
-4096
8192
0
4096
-4096
8192
0
4096
-4096
8192
0
4096
-4096
8192
0
4096
-4096
8192
0
4096
-4096
8192
0
4096
-4096
8192
0
4096
-4096
8192
0
4096
-4096
8192
0
4096
-4096
8192
0
4096
-4096
8192
0
4096
-4096
8192
0
4096
-4096
8192
0
4096
-4096
8192
0
4096
-4096
8192
0
4096
-4096
8192
0
4096
-4096
8192
0
4096
-4096
8192
0
4096
-4096
8192
0
4096
-4096
8192
0
4096
-4096
8192
0
4096
-4096
8192
0
4096
-4096
8192
0
4096
-4096
8192
0
4096
-4096
8192
0
4096
-4096
8192
0
4096
-4096
8192
0
4096
-4096
8192
0
4096
-4096
8192
0
4096
-4096
8192
0
4096
-4096
8192
0
4096
-4096
8192
0
4096
-4096
8192
0
4096
-4096
8192
0
4096
-4096
8192
0
4096
-4096
8192
0
4096
-4096
8192
0
4096
-4096
8192
0
4096
-4096
8192
0
4096
-4096
8192
0
4096
-4096
8192
0
4096
-4096
8192
0
4096
-4096
8192
0
4096
-4096
8192
0
4096
-4096
8192
0
4096
-4096
8192
0
4096
-4096
8192
0
4096
-4096
8192
0
4096
-4096
8192
0
4096
-4096
8192
0
4096
-4096
8192
0
4096
-4096
8192
0
4096
-4096
8192
0
4096
-4096
8192
0
4096
-4096
8192
0
4096
-4096
8192
0
4096
-4096
8192
0
4096
-4096
8192
0
4096
-4096
8192
0
4096
-4096
8192
0
4096
-4096
8192
0
4096
-4096
8192
0
4096
-4096
8192
0
4096
-4096
8192
0
4096
-4096
8192
0
4096
-4096
8192
0
4096
-4096
8192
0
4096
-4096
8192
0
4096
-4096
8192
0
4096
-4096
8192
0
4096
-4096
8192
0
4096
-4096
8192
0
4096
-4096
8192
0
4096
-4096
8192
0
4096
-4096
8192
0
4096
-4096
8192
0
4096
-4096
8192
0
4096
-4096
8192
0
4096
-4096
8192
0
4096
-4096
8192
0
4096
-4096
8192
0
4096
-4096
8192
0
4096
-4096
8192
0
4096
-4096
8192
0
4096
-4096
8192
0
4096
-4096
8192
0
4096
-4096
8192
0
4096
-4096
8192
0
4096
-4096
8192
0
4096
-4096
8192
0
4096
-4096
8192
0
4096
-4096
8192
0
4096
-4096
8192
0
4096
-4096
8192
0
4096
-4096
8192
0
4096
-4096
8192
0
4096
-4096
8192
0
4096
-4096
8192
0
4096
-4096
8192
0
4096
-4096
8192
0
4096
-4096
8192
0
4096
-4096
8192
0
4096
-4096
8192
0
4096
-4096
8192
0
4096
-4096
8192
0
4096
-4096
8192
0
4096
-4096
8192
0
4096
-4096
8192
0
4096
-4096
8192
0
4096
-4096
8192
0
4096
-4096
8192
0
4096
-4096
8192
0
4096
-4096
8192
0
4096
-4096
8192
0
4096
-4096
8192
0
4096
-4096
8192
0
4096
-4096
8192
0
4096
-4096
8192
0
4096
-4096
8192
0
4096
-4096
8192
0
4096
-4096
8192
0
4096
-4096
8192
0
4096
-4096
8192
0
4096
-4096
8192
0
4096
-4096
8192
0
4096
-4096
8192
0
4096
-4096
8192
0
4096
-4096
8192
0
4096
-4096
8192
0
4096
-4096
8192
0
4096
-4096
8192
0
4096
-4096
8192
0
4096
-4096
8192
0
4096
-4096
8192
0
4096
-4096
8192
0
4096
-4096
8192
0
4096
-4096
8192
0
4096
-4096
8192
0
4096
-4096
8192
0
4096
-4096
8192
0
4096
-4096
8192
0
4096
-4096
8192
0
4096
-4096
8192
0
4096
-4096
8192
0
4096
-4096
8192
0
4096
-4096
8192
0
4096
-4096
8192
0
4096
-4096
8192
0
4096
-4096
8192
0
4096
-4096
8192
0
4096
-4096
8192
0
4096
-4096
8192
0
4096
-4096
8192
0
4096
-4096
8192
0
4096
-4096
8192
0
4096
-4096
8192
0
4096
-4096
8192
0
4096
-4096
8192
0
4096
-4096
8192
0
4096
-4096
8192
0
4096
-4096
8192
0
4096
-4096
8192
0
4096
-4096
8192
0
4096
-4096
8192
0
4096
-4096
8192
0
4096
-4096
8192
0
4096
-4096
8192
0
4096
-4096
8192
0
4096
-4096
8192
0
4096
-4096
8192
0
4096
-4096
8192
0
4096
-4096
8192
0
4096
-4096
8192
0
4096
-4096
8192
0
4096
-4096
8192
0
4096
-4096
8192
0
4096
-4096
8192
0
4096
-4096
8192
0
4096
-4096
8192
0
4096
-4096
8192
0
4096
-4096
8192
0
4096
-4096
8192
0
4096
-4096
8192
0
4096
-4096
8192
0
4096
-4096
8192
0
4096
-4096
8192
0
4096
-4096
8192
0
4096
-4096
8192
0
4096
-4096
8192
0
4096
-4096
8192
0
4096
-4096
8192
0
4096
-4096
8192
0
4096
-4096
8192
0
4096
-4096
8192
0
4096
-4096
8192
0
4096
-4096
8192
0
4096
-4096
8192
0
4096
-4096
8192
0
4096
-4096
8192
0
4096
-4096
8192
0
4096
-4096
8192
0
4096
-4096
8192
0
4096
-4096
8192
0
4096
-4096
8192
0
4096
-4096
8192
0
4096
-4096
8192
0
4096
-4096
8192
0
4096
-4096
8192
0
4096
-4096
8192
0
4096
-4096
8192
0
4096
-4096
8192
0
4096
-4096
8192
0
4096
-4096
8192
0
4096
-4096
8192
0
4096
-4096
8192
0
4096
-4096
8192
0
4096
-4096
8192
0
4096
-4096
8192
0
4096
-4096
8192
0
4096
-4096
8192
0
4096
-4096
8192
0
4096
-4096
8192
0
4096
-4096
8192
0
4096
-4096
8192
0
4096
-4096
8192
0
4096
-4096
8192
0
4096
-4096
8192
0
4096
-4096
8192
0
4096
-4096
8192
0
4096
-4096
8192
0
4096
-4096
8192
0
4096
-4096
8192
0
4096
-4096
8192
0
4096
-4096
8192
0
4096
-4096
8192
0
4096
-4096
8192
0
4096
-4096
8192
0
4096
-4096
8192
0
4096
-4096
8192
0
4096
-4096
8192
0
4096
-4096
8192
0
4096
-4096
8192
0
4096
-4096
8192
0
4096
-4096
8192
0
4096
-4096
8192
0
4096
-4096
8192
0
4096
-4096
8192
0
4096
-4096
8192
0
4096
-4096
8192
0
4096
-4096
8192
0
4096
-4096
8192
0
4096
-4096
8192
0
4096
-4096
8192
0
4096
-4096
8192
0
4096
-4096
8192
0
4096
-4096
8192
0
4096
-4096
8192
0
4096
-4096
8192
0
4096
-4096
8192
0
4096
-4096
8192
0
4096
-4096
8192
0
4096
-4096
8192
0
4096
-4096
8192
0
4096
-4096
8192
0
4096
-4096
8192
0
4096
-4096
8192
0
4096
-4096
8192
0
4096
-4096
8192
0
4096
-4096
8192
0
4096
-4096
8192
0
4096
-4096
8192
0
4096
-4096
8192
0
4096
-4096
8192
0
4096
-4096
8192
0
4096
-4096
8192
0
4096
-4096
8192
0
4096
-4096
8192
0
4096
-4096
8192
0
4096
-4096
8192
0
4096
-4096
8192
0
4096
-4096
8192
0
4096
-4096
8192
0
4096
-4096
8192
0
4096
-4096
8192
0
4096
-4096
8192
0
4096
-4096
8192
0
4096
-4096
8192
0
4096
-4096
8192
0
4096
-4096
8192
0
4096
-4096
8192
0
4096
-4096
8192
0
4096
-4096
8192
0
4096
-4096
8192
0
4096
-4096
8192
0
4096
-4096
8192
0
4096
-4096
8192
0
4096
-4096
8192
0
4096
-4096
8192
0
4096
-4096
8192
0
4096
-4096
8192
0
4096
-4096
8192
0
4096
-4096
8192
0
4096
-4096
8192
0
4096
-4096
8192
0
4096
-4096
8192
0
4096
-4096
8192
0
4096
-4096
8192
0
4096
-4096
8192
0
4096
-4096
8192
0
4096
-4096
8192
0
4096
-4096
8192
0
4096
-4096
8192
0
4096
-4096
8192
0
4096
-4096
8192
0
4096
-4096
8192
0
4096
-4096
8192
0
4096
-4096
8192
0
4096
-4096
8192
0
4096
-4096
8192
0
4096
-4096
8192
0
4096
-4096
8192
0
4096
-4096
8192
0
4096
-4096
8192
0
4096
-4096
8192
0
4096
-4096
8192
0
4096
-4096
8192
0
4096
-4096
8192
0
4096
-4096
8192
0
4096
-4096
8192
0
4096
-4096
8192
0
4096
-4096
8192
0
4096
-4096
8192
0
4096
-4096
8192
0
4096
-4096
8192
0
4096
-4096
8192
0
4096
-4096
8192
0
4096
-4096
8192
0
4096
-4096
8192
0
4096
-4096
8192
0
4096
-4096
8192
0
4096
-4096
8192
0
4096
-4096
8192
0
4096
-4096
8192
0
4096
-4096
8192
0
4096
-4096
8192
0
4096
-4096
8192
0
4096
-4096
8192
0
4096
-4096
8192
0
4096
-4096
8192
0
4096
-4096
8192
0
4096
-4096
8192
0
4096
-4096
8192
0
4096
-4096
8192
0
4096
-4096
8192
0
4096
-4096
8192
0
4096
-4096
8192
0
4096
-4096
8192
0
4096
-4096
8192
0
4096
-4096
8192
0
4096
-4096
8192
0
4096
-4096
8192
0
4096
-4096
8192
0
4096
-4096
8192
0
4096
-4096
8192
0
4096
-4096
8192
0
4096
-4096
8192
0
4096
-4096
8192
0
4096
-4096
8192
0
4096
-4096
8192
0
4096
-4096
8192
0
4096
-4096
8192
0
4096
-4096
8192
0
4096
-4096
8192
0
4096
-4096
8192
0
4096
-4096
8192
0
4096
-4096
8192
0
4096
-4096
8192
0
4096
-4096
8192
0
4096
-4096
8192
0
4096
-4096
8192
0
4096
-4096
8192
0
4096
-4096
8192
0
4096
-4096
8192
0
4096
-4096
8192
0
4096
-4096
8192
0
4096
-4096
8192
0
4096
-4096
8192
0
4096
-4096
8192
0
4096
-4096
8192
0
4096
-4096
8192
0
4096
-4096
8192
0
4096
-4096
8192
0
4096
-4096
8192
0
4096
-4096
8192
0
4096
-4096
8192
0
4096
-4096
8192
0
4096
-4096
8192
0
4096
-4096
8192
0
4096
-4096
8192
0
4096
-4096
8192
0
4096
-4096
8192
0
4096
-4096
8192
0
4096
-4096
8192
0
4096
-4096
8192
0
4096
-4096
8192
0
4096
-4096
8192
0
4096
-4096
8192
0
4096
-4096
8192
0
4096
-4096
8192
0
4096
-4096
8192
0
4096
-4096
8192
0
4096
-4096
8192
0
4096
-4096
8192
0
4096
-4096
8192
0
4096
-4096
8192
0
4096
-4096
8192
0
4096
-4096
8192
0
4096
-4096
8192
0
4096
-4096
8192
0
4096
-4096
8192
0
4096
-4096
8192
0
4096
-4096
8192
0
4096
-4096
8192
0
4096
-4096
8192
0
4096
-4096
8192
0
4096
-4096
8192
0
4096
-4096
8192
0
4096
-4096
8192
0
4096
-4096
8192
0
4096
-4096
8192
0
4096
-4096
8192
0
4096
-4096
8192
0
4096
-4096
8192
0
4096
-4096
8192
0
4096
-4096
8192
0
4096
-4096
8192
0
4096
-4096
8192
0
4096
-4096
8192
0
4096
-4096
8192
0
4096
-4096
8192
0
4096
-4096
8192
0
4096
-4096
8192
0
4096
-4096
8192
0
4096
-4096
8192
0
4096
-4096
8192
0
4096
-4096
8192
0
4096
-4096
8192
0
4096
-4096
8192
0
4096
-4096
8192
0
4096
-4096
8192
0
4096
-4096
8192
0
4096
-4096
8192
0
4096
-4096
8192
0
4096
-4096
8192
0
4096
-4096
8192
0
4096
-4096
8192
0
4096
-4096
8192
0
4096
-4096
8192
0
4096
-4096
8192
0
4096
-4096
8192
0
4096
-4096
8192
0
4096
-4096
8192
0
4096
-4096
8192
0
4096
-4096
8192
0
4096
-4096
8192
0
4096
-4096
8192
0
4096
-4096
8192
0
4096
-4096
8192
0
4096
-4096
8192
0
4096
-4096
8192
0
4096
-4096
8192
0
4096
-4096
8192
0
4096
-4096
8192
0
4096
-4096
8192
0
4096
-4096
8192
0
4096
-4096
8192
0
4096
-4096
8192
0
4096
-4096
8192
0
4096
-4096
8192
0
4096
-4096
8192
0
4096
-4096
8192
0
4096
-4096
8192
0
4096
-4096
8192
0
4096
-4096
8192
0
4096
-4096
8192
0
4096
-4096
8192
0
4096
-4096
8192
0
4096
-4096
8192
0
4096
-4096
8192
0
4096
-4096
8192
0
4096
-4096
8192
0
4096
-4096
8192
0
4096
-4096
8192
0
4096
-4096
8192
0
4096
-4096
8192
0
4096
-4096
8192
0
4096
-4096
8192
0
4096
-4096
8192
0
4096
-4096
8192
0
4096
-4096
8192
0
4096
-4096
8192
0
4096
-4096
8192
0
4096
-4096
8192
0
4096
-4096
8192
0
4096
-4096
8192
0
4096
-4096
8192
0
4096
-4096
8192
0
4096
-4096
8192
0
4096
-4096
8192
0
4096
-4096
8192
0
4096
-4096
8192
0
4096
-4096
8192
0
4096
-4096
8192
0
4096
-4096
8192
0
4096
-4096
8192
0
4096
-4096
8192
0
4096
-4096
8192
0
4096
-4096
8192
0
4096
-4096
8192
0
4096
-4096
8192
0
4096
-4096
8192
0
4096
-4096
8192
0
4096
-4096
8192
0
4096
-4096
8192
0
4096
-4096
8192
0
4096
-4096
8192
0
4096
-4096
8192
0
4096
-4096
8192
0
4096
-4096
8192
0
4096
-4096
8192
0
4096
-4096
8192
0
4096
-4096
8192
0
4096
-4096
8192
0
4096
-4096
8192
0
4096
-4096
8192
0
4096
-4096
8192
0
4096
-4096
8192
0
4096
-4096
8192
0
4096
-4096
8192
0
4096
-4096
8192
0
4096
-4096
8192
0
4096
-4096
8192
0
4096
-4096
8192
0
4096
-4096
8192
0
4096
-4096
8192
0
4096
-4096
8192
0
4096
-4096
8192
0
4096
-4096
8192
0
4096
-4096
8192
0
4096
-4096
8192
0
4096
-4096
8192
0
4096
-4096
8192
0
4096
-4096
8192
0
4096
-4096
8192
0
4096
-4096
8192
0
4096
-4096
8192
0
4096
-4096
8192
0
4096
-4096
8192
0
4096
-4096
8192
0
4096
-4096
8192
0
4096
-4096
8192
0
4096
-4096
8192
0
4096
-4096
8192
0
4096
-4096
8192
0
4096
-4096
8192
0
4096
-4096
8192
0
4096
-4096
8192
0
4096
-4096
8192
0
4096
-4096
8192
0
4096
-4096
8192
0
4096
-4096
8192
0
4096
-4096
8192
0
4096
-4096
8192
0
4096
-4096
8192
0
4096
-4096
8192
0
4096
-4096
8192
0
4096
-4096
8192
0
4096
-4096
8192
0
4096
-4096
8192
0
4096
-4096
8192
0
4096
-4096
8192
0
4096
-4096
8192
0
4096
-4096
8192
0
4096
-4096
8192
0
4096
-4096
8192
0
4096
-4096
8192
0
4096
-4096
8192
0
4096
-4096
8192
0
4096
-4096
8192
0
4096
-4096
8192
0
4096
-4096
8192
0
4096
-4096
8192
0
4096
-4096
8192
0
4096
-4096
8192
0
4096
-4096
8192
0
4096
-4096
8192
0
4096
-4096
8192
0
4096
-4096
8192
0
4096
-4096
8192
0
4096
-4096
8192
0
4096
-4096
8192
0
4096
-4096
8192
0
4096
-4096
8192
0
4096
-4096
8192
0
4096
-4096
8192
0
4096
-4096
8192
0
4096
-4096
8192
0
4096
-4096
8192
0
4096
-4096
8192
0
4096
-4096
8192
0
4096
-4096
8192
0
4096
-4096
8192
0
4096
-4096
8192
0
4096
-4096
8192
0
4096
-4096
8192
0
4096
-4096
8192
0
4096
-4096
8192
0
4096
-4096
8192
0
4096
-4096
8192
0
4096
-4096
8192
0
4096
-4096
8192
0
4096
-4096
8192
0
4096
-4096
8192
0
4096
-4096
8192
0
4096
-4096
8192
0
4096
-4096
8192
0
4096
-4096
8192
0
4096
-4096
8192
0
4096
-4096
8192
0
4096
-4096
8192
0
4096
-4096
8192
0
4096
-4096
8192
0
4096
-4096
8192
0
4096
-4096
8192
0
4096
-4096
8192
0
4096
-4096
8192
0
4096
-4096
8192
0
4096
-4096
8192
0
4096
-4096
8192
0
4096
-4096
8192
0
4096
-4096
8192
0
4096
-4096
8192
0
4096
-4096
8192
0
4096
-4096
8192
0
4096
-4096
8192
0
4096
-4096
8192
0
4096
-4096
8192
0
4096
-4096
8192
0
4096
-4096
8192
0
4096
-4096
8192
0
4096
-4096
8192
0
4096
-4096
8192
0
4096
-4096
8192
0
4096
-4096
8192
0
4096
-4096
8192
0
4096
-4096
8192
0
4096
-4096
8192
0
4096
-4096
8192
0
4096
-4096
8192
0
4096
-4096
8192
0
4096
-4096
8192
0
4096
-4096
8192
0
4096
-4096
8192
0
4096
-4096
8192
0
4096
-4096
8192
0
4096
-4096
8192
0
4096
-4096
8192
0
4096
-4096
8192
0
4096
-4096
8192
0
4096
-4096
8192
0
4096
-4096
8192
0
4096
-4096
8192
0
4096
-4096
8192
0
4096
-4096
8192
0
4096
-4096
8192
0
4096
-4096
8192
0
4096
-4096
8192
0
4096
-4096
8192
0
4096
-4096
8192
0
4096
-4096
8192
0
4096
-4096
8192
0
4096
-4096
8192
0
4096
-4096
8192
0
4096
-4096
8192
0
4096
-4096
8192
0
4096
-4096
8192
0
4096
-4096
8192
0
4096
-4096
8192
0
4096
-4096
8192
0
4096
-4096
8192
0
4096
-4096
8192
0
4096
-4096
8192
0
4096
-4096
8192
0
4096
-4096
8192
0
4096
-4096
8192
0
4096
-4096
8192
0
4096
-4096
8192
0
4096
-4096
8192
0
4096
-4096
8192
0
4096
-4096
8192
0
4096
-4096
8192
0
4096
-4096
8192
0
4096
-4096
8192
0
4096
-4096
8192
0
4096
-4096
8192
0
4096
-4096
8192
0
4096
-4096
8192
0
4096
-4096
8192
0
4096
-4096
8192
0
4096
-4096
8192
0
4096
-4096
8192
0
4096
-4096
8192
0
4096
-4096
8192
0
4096
-4096
8192
0
4096
-4096
8192
0
4096
-4096
8192
0
4096
-4096
8192
0
4096
-4096
8192
0
4096
-4096
8192
0
4096
-4096
8192
0
4096
-4096
8192
0
4096
-4096
8192
0
4096
-4096
8192
0
4096
-4096
8192
0
4096
-4096
8192
0
4096
-4096
8192
0
4096
-4096
8192
0
4096
-4096
8192
0
4096
-4096
8192
0
4096
-4096
8192
0
4096
-4096
8192
0
4096
-4096
8192
0
4096
-4096
8192
0
4096
-4096
8192
0
4096
-4096
8192
0
4096
-4096
8192
0
4096
-4096
8192
0
4096
-4096
8192
0
4096
-4096
8192
0
4096
-4096
8192
0
4096
-4096
8192
0
4096
-4096
8192
0
4096
-4096
8192
0
4096
-4096
8192
0
4096
-4096
8192
0
4096
-4096
8192
0
4096
-4096
8192
0
4096
-4096
8192
0
4096
-4096
8192
0
4096
-4096
8192
0
4096
-4096
8192
0
4096
-4096
8192
0
4096
-4096
8192
0
4096
-4096
8192
0
4096
-4096
8192
0
4096
-4096
8192
0
4096
-4096
8192
0
4096
-4096
8192
0
4096
-4096
8192
0
4096
-4096
8192
0
4096
-4096
8192
0
4096
-4096
8192
0
4096
-4096
8192
0
4096
-4096
8192
0
4096
-4096
8192
0
4096
-4096
8192
0
4096
-4096
8192
0
4096
-4096
8192
0
4096
-4096
8192
0
4096
-4096
8192
0
4096
-4096
8192
0
4096
-4096
8192
0
4096
-4096
8192
0
4096
-4096
8192
0
4096
-4096
8192
0
4096
-4096
8192
0
4096
-4096
8192
0
4096
-4096
8192
0
4096
-4096
8192
0
4096
-4096
8192
0
4096
-4096
8192
0
4096
-4096
8192
0
4096
-4096
8192
0
4096
-4096
8192
0
4096
-4096
8192
0
4096
-4096
8192
0
4096
-4096
8192
0
4096
-4096
8192
0
4096
-4096
8192
0
4096
-4096
8192
0
4096
-4096
8192
0
4096
-4096
8192
0
4096
-4096
8192
0
4096
-4096
8192
0
4096
-4096
8192
0
4096
-4096
8192
0
4096
-4096
8192
0
4096
-4096
8192
0
4096
-4096
8192
0
4096
-4096
8192
0
4096
-4096
8192
0
4096
-4096
8192
0
4096
-4096
8192
0
4096
-4096
8192
0
4096
-4096
8192
0
4096
-4096
8192
0
4096
-4096
8192
0
4096
-4096
8192
0
4096
-4096
8192
0
4096
-4096
8192
0
4096
-4096
8192
0
4096
-4096
8192
0
4096
-4096
8192
0
4096
-4096
8192
0
4096
-4096
8192
0
4096
-4096
8192
0
4096
-4096
8192
0
4096
-4096
8192
0
4096
-4096
8192
0
4096
-4096
8192
0
4096
-4096
8192
0
4096
-4096
8192
0
4096
-4096
8192
0
4096
-4096
8192
0
4096
-4096
8192
0
4096
-4096
8192
0
4096
-4096
8192
0
4096
-4096
8192
0
4096
-4096
8192
0
4096
-4096
8192
0
4096
-4096
8192
0
4096
-4096
8192
0
4096
-4096
8192
0
4096
-4096
8192
0
4096
-4096
8192
0
4096
-4096
8192
0
4096
-4096
8192
0
4096
-4096
8192
0
4096
-4096
8192
0
4096
-4096
8192
0
4096
-4096
8192
0
4096
-4096
8192
0
4096
-4096
8192
0
4096
-4096
8192
0
4096
-4096
8192
0
4096
-4096
8192
0
4096
-4096
8192
0
4096
-4096
8192
0
4096
-4096
8192
0
4096
-4096
8192
0
4096
-4096
8192
0
4096
-4096
8192
0
4096
-4096
8192
0
4096
-4096
8192
0
4096
-4096
8192
0
4096
-4096
8192
0
4096
-4096
8192
0
4096
-4096
8192
0
4096
-4096
8192
0
4096
-4096
8192
0
4096
-4096
8192
0
4096
-4096
8192
0
4096
-4096
8192
0
4096
-4096
8192
0
4096
-4096
8192
0
4096
-4096
8192
0
4096
-4096
8192
0
4096
-4096
8192
0
4096
-4096
8192
0
4096
-4096
8192
0
4096
-4096
8192
0
4096
-4096
8192
0
4096
-4096
8192
0
4096
-4096
8192
0
4096
-4096
8192
0
4096
-4096
8192
0
4096
-4096
8192
0
4096
-4096
8192
0
4096
-4096
8192
0
4096
-4096
8192
0
4096
-4096
8192
0
4096
-4096
8192
0
4096
-4096
8192
0
4096
-4096
8192
0
4096
-4096
8192
0
4096
-4096
8192
0
4096
-4096
8192
0
4096
-4096
8192
0
4096
-4096
8192
0
4096
-4096
8192
0
4096
-4096
8192
0
4096
-4096
8192
0
4096
-4096
8192
0
4096
-4096
8192
0
4096
-4096
8192
0
4096
-4096
8192
0
4096
-4096
8192
0
4096
-4096
8192
0
4096
-4096
8192
0
4096
-4096
8192
0
4096
-4096
8192
0
4096
-4096
8192
0
4096
-4096
8192
0
4096
-4096
8192
0
4096
-4096
8192
0
4096
-4096
8192
0
4096
-4096
8192
0
4096
-4096
8192
0
4096
-4096
8192
0
4096
-4096
8192
0
4096
-4096
8192
0
4096
-4096
8192
0
4096
-4096
8192
0
4096
-4096
8192
0
4096
-4096
8192
0
4096
-4096
8192
0
4096
-4096
8192
0
4096
-4096
8192
0
4096
-4096
8192
0
4096
-4096
8192
0
4096
-4096
8192
0
4096
-4096
8192
0
4096
-4096
8192
0
4096
-4096
8192
0
4096
-4096
8192
0
4096
-4096
8192
0
4096
-4096
8192
0
4096
-4096
8192
0
4096
-4096
8192
0
4096
-4096
8192
0
4096
-4096
8192
0
4096
-4096
8192
0
4096
-4096
8192
0
4096
-4096
8192
0
4096
-4096
8192
0
4096
-4096
8192
0
4096
-4096
8192
0
4096
-4096
8192
0
4096
-4096
8192
0
4096
-4096
8192
0
4096
-4096
8192
0
4096
-4096
8192
0
4096
-4096
8192
0
4096
-4096
8192
0
4096
-4096
8192
0
4096
-4096
8192
0
4096
-4096
8192
0
4096
-4096
8192
0
4096
-4096
8192
0
4096
-4096
8192
0
4096
-4096
8192
0
4096
-4096
8192
0
4096
-4096
8192
0
4096
-4096
8192
0
4096
-4096
8192
0
4096
-4096
8192
0
4096
-4096
8192
0
4096
-4096
8192
0
4096
-4096
8192
0
4096
-4096
8192
0
4096
-4096
8192
0
4096
-4096
8192
0
4096
-4096
8192
0
4096
-4096
8192
0
4096
-4096
8192
0
4096
-4096
8192
0
4096
-4096
8192
0
4096
-4096
8192
0
4096
-4096
8192
0
4096
-4096
8192
0
4096
-4096
8192
0
4096
-4096
8192
0
4096
-4096
8192
0
4096
-4096
8192
0
4096
-4096
8192
0
4096
-4096
8192
0
4096
-4096
8192
0
4096
-4096
8192
0
4096
-4096
8192
0
4096
-4096
8192
0
4096
-4096
8192
0
4096
-4096
8192
0
4096
-4096
8192
0
4096
-4096
8192
0
4096
-4096
8192
0
4096
-4096
8192
0
4096
-4096
8192
0
4096
-4096
8192
0
4096
-4096
8192
0
4096
-4096
8192
0
4096
-4096
8192
0
4096
-4096
8192
0
4096
-4096
8192
0
4096
-4096
8192
0
4096
-4096
8192
0
4096
-4096
8192
0
4096
-4096
8192
0
4096
-4096
8192
0
4096
-4096
8192
0
4096
-4096
8192
0
4096
-4096
8192
0
4096
-4096
8192
0
4096
-4096
8192
0
4096
-4096
8192
0
4096
-4096
8192
0
4096
-4096
8192
0
4096
-4096
8192
0
4096
-4096
8192
0
4096
-4096
8192
0
4096
-4096
8192
0
4096
-4096
8192
0
4096
-4096
8192
0
4096
-4096
8192
0
4096
-4096
8192
0
4096
-4096
8192
0
4096
-4096
8192
0
4096
-4096
8192
0
4096
-4096
8192
0
4096
-4096
8192
0
4096
-4096
8192
0
4096
-4096
8192
0
4096
-4096
8192
0
4096
-4096
8192
0
4096
-4096
8192
0
4096
-4096
8192
0
4096
-4096
8192
0
4096
-4096
8192
0
4096
-4096
8192
0
4096
-4096
8192
0
4096
-4096
8192
0
4096
-4096
8192
0
4096
-4096
8192
0
4096
-4096
8192
0
4096
-4096
8192
0
4096
-4096
8192
0
4096
-4096
8192
0
4096
-4096
8192
0
4096
-4096
8192
0
4096
-4096
8192
0
4096
-4096
8192
0
4096
-4096
8192
0
4096
-4096
8192
0
4096
-4096
8192
0
4096
-4096
8192
0
4096
-4096
8192
0
4096
-4096
8192
0
4096
-4096
8192
0
4096
-4096
8192
0
4096
-4096
8192
0
4096
-4096
8192
0
4096
-4096
8192
0
4096
-4096
8192
0
4096
-4096
8192
0
4096
-4096
8192
0
4096
-4096
8192
0
4096
-4096
8192
0
4096
-4096
8192
0
4096
-4096
8192
0
4096
-4096
8192
0
4096
-4096
8192
0
4096
-4096
8192
0
4096
-4096
8192
0
4096
-4096
8192
0
4096
-4096
8192
0
4096
-4096
8192
0
4096
-4096
8192
0
4096
-4096
8192
0
4096
-4096
8192
0
4096
-4096
8192
0
4096
-4096
8192
0
4096
-4096
8192
0
4096
-4096
8192
0
4096
-4096
8192
0
4096
-4096
8192
0
4096
-4096
8192
0
4096
-4096
8192
0
4096
-4096
8192
0
4096
-4096
8192
0
4096
-4096
8192
0
4096
-4096
8192
0
4096
-4096
8192
0
4096
-4096
8192
0
4096
-4096
8192
0
4096
-4096
8192
0
4096
-4096
8192
0
4096
-4096
8192
0
4096
-4096
8192
0
4096
-4096
8192
0
4096
-4096
8192
0
4096
-4096
8192
0
4096
-4096
8192
0
4096
-4096
8192
0
4096
-4096
8192
0
4096
-4096
8192
0
4096
-4096
8192
0
4096
-4096
8192
0
4096
-4096
8192
0
4096
-4096
8192
0
4096
-4096
8192
0
4096
-4096
8192
0
4096
-4096
8192
0
4096
-4096
8192
0
4096
-4096
8192
0
4096
-4096
8192
0
4096
-4096
8192
0
4096
-4096
8192
0
4096
-4096
8192
0
4096
-4096
8192
0
4096
-4096
8192
0
4096
-4096
8192
0
4096
-4096
8192
0
4096
-4096
8192
0
4096
-4096
8192
0
4096
-4096
8192
0
4096
-4096
8192
0
4096
-4096
8192
0
4096
-4096
8192
0
4096
-4096
8192
0
4096
-4096
8192
0
4096
-4096
8192
0
4096
-4096
8192
0
4096
-4096
8192
0
4096
-4096
8192
0
4096
-4096
8192
0
4096
-4096
8192
0
4096
-4096
8192
0
4096
-4096
8192
0
4096
-4096
8192
0
4096
-4096
8192
0
4096
-4096
8192
0
4096
-4096
8192
0
4096
-4096
8192
0
4096
-4096
8192
0
4096
-4096
8192
0
4096
-4096
8192
0
4096
-4096
8192
0
4096
-4096
8192
0
4096
-4096
8192
0
4096
-4096
8192
0
4096
-4096
8192
0
4096
-4096
8192
0
4096
-4096
8192
0
4096
-4096
8192
0
4096
-4096
8192
0
4096
-4096
8192
0
4096
-4096
8192
0
4096
-4096
8192
0
4096
-4096
8192
0
4096
-4096
8192
0
4096
-4096
8192
0
4096
-4096
8192
0
4096
-4096
8192
0
4096
-4096
8192
0
4096
-4096
8192
0
4096
-4096
8192
0
4096
-4096
8192
0
4096
-4096
8192
0
4096
-4096
8192
0
4096
-4096
8192
0
4096
-4096
8192
0
4096
-4096
8192
0
4096
-4096
8192
0
4096
-4096
8192
0
4096
-4096
8192
0
4096
-4096
8192
0
4096
-4096
8192
0
4096
-4096
8192
0
4096
-4096
8192
0
4096
-4096
8192
0
4096
-4096
8192
0
4096
-4096
8192
0
4096
-4096
8192
0
4096
-4096
8192
0
4096
-4096
8192
0
4096
-4096
8192
0
4096
-4096
8192
0
4096
-4096
8192
0
4096
-4096
8192
0
4096
-4096
8192
0
4096
-4096
8192
0
4096
-4096
8192
0
4096
-4096
8192
0
4096
-4096
8192
0
4096
-4096
8192
0
4096
-4096
8192
0
4096
-4096
8192
0
4096
-4096
8192
0
4096
-4096
8192
0
4096
-4096
8192
0
4096
-4096
8192
0
4096
-4096
8192
0
4096
-4096
8192
0
4096
-4096
8192
0
4096
-4096
8192
0
4096
-4096
8192
0
4096
-4096
8192
0
4096
-4096
8192
0
4096
-4096
8192
0
4096
-4096
8192
0
4096
-4096
8192
0
4096
-4096
8192
0
4096
-4096
8192
0
4096
-4096
8192
0
4096
-4096
8192
0
4096
-4096
8192
0
4096
-4096
8192
0
4096
-4096
8192
0
4096
-4096
8192
0
4096
-4096
8192
0
4096
-4096
8192
0
4096
-4096
8192
0
4096
-4096
8192
0
4096
-4096
8192
0
4096
-4096
8192
0
4096
-4096
8192
0
4096
-4096
8192
0
4096
-4096
8192
0
4096
-4096
8192
0
4096
-4096
8192
0
4096
-4096
8192
0
4096
-4096
8192
0
4096
-4096
8192
0
4096
-4096
8192
0
4096
-4096
8192
0
4096
-4096
8192
0
4096
-4096
8192
0
4096
-4096
8192
0
4096
-4096
8192
0
4096
-4096
8192
0
4096
-4096
8192
0
4096
-4096
8192
0
4096
-4096
8192
0
4096
-4096
8192
0
4096
-4096
8192
0
4096
-4096
8192
0
4096
-4096
8192
0
4096
-4096
8192
0
4096
-4096
8192
0
4096
-4096
8192
0
4096
-4096
8192
0
4096
-4096
8192
0
4096
-4096
8192
0
4096
-4096
8192
0
4096
-4096
8192
0
4096
-4096
8192
0
4096
-4096
8192
0
4096
-4096
8192
0
4096
-4096
8192
0
4096
-4096
8192
0
4096
-4096
8192
0
4096
-4096
8192
0
4096
-4096
8192
0
4096
-4096
8192
0
4096
-4096
8192
0
4096
-4096
8192
0
4096
-4096
8192
0
4096
-4096
8192
0
4096
-4096
8192
0
4096
-4096
8192
0
4096
-4096
8192
0
4096
-4096
8192
0
4096
-4096
8192
0
4096
-4096
8192
0
4096
-4096
8192
0
4096
-4096
8192
0
4096
-4096
8192
0
4096
-4096
8192
0
4096
-4096
8192
0
4096
-4096
8192
0
4096
-4096
8192
0
4096
-4096
8192
0
4096
-4096
8192
0
4096
-4096
8192
0
4096
-4096
8192
0
4096
-4096
8192
0
4096
-4096
8192
0
4096
-4096
8192
0
4096
-4096
8192
0
4096
-4096
8192
0
4096
-4096
8192
0
4096
-4096
8192
0
4096
-4096
8192
0
4096
-4096
8192
0
4096
-4096
8192
0
4096
-4096
8192
0
4096
-4096
8192
0
4096
-4096
8192
0
4096
-4096
8192
0
4096
-4096
8192
0
4096
-4096
8192
0
4096
-4096
8192
0
4096
-4096
8192
0
4096
-4096
8192
0
4096
-4096
8192
0
4096
-4096
8192
0
4096
-4096
8192
0
4096
-4096
8192
0
4096
-4096
8192
0
4096
-4096
8192
0
4096
-4096
8192
0
4096
-4096
8192
0
4096
-4096
8192
0
4096
-4096
8192
0
4096
-4096
8192
0
4096
-4096
8192
0
4096
-4096
8192
0
4096
-4096
8192
0
4096
-4096
8192
0
4096
-4096
8192
0
4096
-4096
8192
0
4096
-4096
8192
0
4096
-4096
8192
0
4096
-4096
8192
0
4096
-4096
8192
0
4096
-4096
8192
0
4096
-4096
8192
0
4096
-4096
8192
0
4096
-4096
8192
0
4096
-4096
8192
0
4096
-4096
8192
0
4096
-4096
8192
0
4096
-4096
8192
0
4096
-4096
8192
0
4096
-4096
8192
0
4096
-4096
8192
0
4096
-4096
8192
0
4096
-4096
8192
0
4096
-4096
8192
0
4096
-4096
8192
0
4096
-4096
8192
0
4096
-4096
8192
0
4096
-4096
8192
0
4096
-4096
8192
0
4096
-4096
8192
0
4096
-4096
8192
0
4096
-4096
8192
0
4096
-4096
8192
0
4096
-4096
8192
0
4096
-4096
8192
0
4096
-4096
8192
0
4096
-4096
8192
0
4096
-4096
8192
0
4096
-4096
8192
0
4096
-4096
8192
0
4096
-4096
8192
0
4096
-4096
8192
0
4096
-4096
8192
0
4096
-4096
8192
0
4096
-4096
8192
0
4096
-4096
8192
0
4096
-4096
8192
0
4096
-4096
8192
0
4096
-4096
8192
0
4096
-4096
8192
0
4096
-4096
8192
0
4096
-4096
8192
0
4096
-4096
8192
0
4096
-4096
8192
0
4096
-4096
8192
0
4096
-4096
8192
0
4096
-4096
8192
0
4096
-4096
8192
0
4096
-4096
8192
0
4096
-4096
8192
0
4096
-4096
8192
0
4096
-4096
8192
0
4096
-4096
8192
0
4096
-4096
8192
0
4096
-4096
8192
0
4096
-4096
8192
0
4096
-4096
8192
0
4096
-4096
8192
0
4096
-4096
8192
0
4096
-4096
8192
0
4096
-4096
8192
0
4096
-4096
8192
0
4096
-4096
8192
0
4096
-4096
8192
0
4096
-4096
8192
0
4096
-4096
8192
0
4096
-4096
8192
0
4096
-4096
8192
0
4096
-4096
8192
0
4096
-4096
8192
0
4096
-4096
8192
0
4096
-4096
8192
0
4096
-4096
8192
0
4096
-4096
8192
0
4096
-4096
8192
0
4096
-4096
8192
0
4096
-4096
8192
0
4096
-4096
8192
0
4096
-4096
8192
0
4096
-4096
8192
0
4096
-4096
8192
0
4096
-4096
8192
0
4096
-4096
8192
0
4096
-4096
8192
0
4096
-4096
8192
0
4096
-4096
8192
0
4096
-4096
8192
0
4096
-4096
8192
0
4096
-4096
8192
0
4096
-4096
8192
0
4096
-4096
8192
0
4096
-4096
8192
0
4096
-4096
8192
0
4096
-4096
8192
0
4096
-4096
8192
0
4096
-4096
8192
0
4096
-4096
8192
0
4096
-4096
8192
0
4096
-4096
8192
0
4096
-4096
8192
0
4096
-4096
8192
0
4096
-4096
8192
0
4096
-4096
8192
0
4096
-4096
8192
0
4096
-4096
8192
0
4096
-4096
8192
0
4096
-4096
8192
0
4096
-4096
8192
0
4096
-4096
8192
0
4096
-4096
8192
0
4096
-4096
8192
0
4096
-4096
8192
0
4096
-4096
8192
0
4096
-4096
8192
0
4096
-4096
8192
0
4096
-4096
8192
0
4096
-4096
8192
0
4096
-4096
8192
0
4096
-4096
8192
0
4096
-4096
8192
0
4096
-4096
8192
0
4096
-4096
8192
0
4096
-4096
8192
0
4096
-4096
8192
0
4096
-4096
8192
0
4096
-4096
8192
0
4096
-4096
8192
0
4096
-4096
8192
0
4096
-4096
8192
0
4096
-4096
8192
0
4096
-4096
8192
0
4096
-4096
8192
0
4096
-4096
8192
0
4096
-4096
8192
0
4096
-4096
8192
0
4096
-4096
8192
0
4096
-4096
8192
0
4096
-4096
8192
0
4096
-4096
8192
0
4096
-4096
8192
0
4096
-4096
8192
0
4096
-4096
8192
0
4096
-4096
8192
0
4096
-4096
8192
0
4096
-4096
8192
0
4096
-4096
8192
0
4096
-4096
8192
0
4096
-4096
8192
0
4096
-4096
8192
0
4096
-4096
8192
0
4096
-4096
8192
0
4096
-4096
8192
0
4096
-4096
8192
0
4096
-4096
8192
0
4096
-4096
8192
0
4096
-4096
8192
0
4096
-4096
8192
0
4096
-4096
8192
0
4096
-4096
8192
0
4096
-4096
8192
0
4096
-4096
8192
0
4096
-4096
8192
0
4096
-4096
8192
0
4096
-4096
8192
0
4096
-4096
8192
0
4096
-4096
8192
0
4096
-4096
8192
0
4096
-4096
8192
0
4096
-4096
8192
0
4096
-4096
8192
0
4096
-4096
8192
0
4096
-4096
8192
0
4096
-4096
8192
0
4096
-4096
8192
0
4096
-4096
8192
0
4096
-4096
8192
0
4096
-4096
8192
0
4096
-4096
8192
0
4096
-4096
8192
0
4096
-4096
8192
0
4096
-4096
8192
0
4096
-4096
8192
0
4096
-4096
8192
0
4096
-4096
8192
0
4096
-4096
8192
0
4096
-4096
8192
0
4096
-4096
8192
0
4096
-4096
8192
0
4096
-4096
8192
0
4096
-4096
8192
0
4096
-4096
8192
0
4096
-4096
8192
0
4096
-4096
8192
0
4096
-4096
8192
0
4096
-4096
8192
0
4096
-4096
8192
0
4096
-4096
8192
0
4096
-4096
8192
0
4096
-4096
8192
0
4096
-4096
8192
0
4096
-4096
8192
0
4096
-4096
8192
0
4096
-4096
8192
0
4096
-4096
8192
0
4096
-4096
8192
0
4096
-4096
8192
0
4096
-4096
8192
0
4096
-4096
8192
0
4096
-4096
8192
0
4096
-4096
8192
0
4096
-4096
8192
0
4096
-4096
8192
0
4096
-4096
8192
0
4096
-4096
8192
0
4096
-4096
8192
0
4096
-4096
8192
0
4096
-4096
8192
0
4096
-4096
8192
0
4096
-4096
8192
0
4096
-4096
8192
0
4096
-4096
8192
0
4096
-4096
8192
0
4096
-4096
8192
0
4096
-4096
8192
0
4096
-4096
8192
0
4096
-4096
8192
0
4096
-4096
8192
0
4096
-4096
8192
0
4096
-4096
8192
0
4096
-4096
8192
0
4096
-4096
8192
0
4096
-4096
8192
0
4096
-4096
8192
0
4096
-4096
8192
0
4096
-4096
8192
0
4096
-4096
8192
0
4096
-4096
8192
0
4096
-4096
8192
0
4096
-4096
8192
0
4096
-4096
8192
0
4096
-4096
8192
0
4096
-4096
8192
0
4096
-4096
8192
0
4096
-4096
8192
0
4096
-4096
8192
0
4096
-4096
8192
0
4096
-4096
8192
0
4096
-4096
8192
0
4096
-4096
8192
0
4096
-4096
8192
0
4096
-4096
8192
0
4096
-4096
8192
0
4096
-4096
8192
0
4096
-4096
8192
0
4096
-4096
8192
0
4096
-4096
8192
0
4096
-4096
8192
0
4096
-4096
8192
0
4096
-4096
8192
0
4096
-4096
8192
0
4096
-4096
8192
0
4096
-4096
8192
0
4096
-4096
8192
0
4096
-4096
8192
0
4096
-4096
8192
0
4096
-4096
8192
0
4096
-4096
8192
0
4096
-4096
8192
0
4096
-4096
8192
0
4096
-4096
8192
0
4096
-4096
8192
0
4096
-4096
8192
0
4096
-4096
8192
0
4096
-4096
8192
0
4096
-4096
8192
0
4096
-4096
8192
0
4096
-4096
8192
0
4096
-4096
8192
0
4096
-4096
8192
0
4096
-4096
8192
0
4096
-4096
8192
0
4096
-4096
8192
0
4096
-4096
8192
0
4096
-4096
8192
0
4096
-4096
8192
0
4096
-4096
8192
0
4096
-4096
8192
0
4096
-4096
8192
0
4096
-4096
8192
0
4096
-4096
8192
0
4096
-4096
8192
0
4096
-4096
8192
0
4096
-4096
8192
0
4096
-4096
8192
0
4096
-4096
8192
0
4096
-4096
8192
0
4096
-4096
8192
0
4096
-4096
8192
0
4096
-4096
8192
0
4096
-4096
8192
0
4096
-4096
8192
0
4096
-4096
8192
0
4096
-4096
8192
0
4096
-4096
8192
0
4096
-4096
8192
0
4096
-4096
8192
0
4096
-4096
8192
0
4096
-4096
8192
0
4096
-4096
8192
0
4096
-4096
8192
0
4096
-4096
8192
0
4096
-4096
8192
0
4096
-4096
8192
0
4096
-4096
8192
0
4096
-4096
8192
0
4096
-4096
8192
0
4096
-4096
8192
0
4096
-4096
8192
0
4096
-4096
8192
0
4096
-4096
8192
0
4096
-4096
8192
0
4096
-4096
8192
0
4096
-4096
8192
0
4096
-4096
8192
0
4096
-4096
8192
0
4096
-4096
8192
0
4096
-4096
8192
0
4096
-4096
8192
0
4096
-4096
8192
0
4096
-4096
8192
0
4096
-4096
8192
0
4096
-4096
8192
0
4096
-4096
8192
0
4096
-4096
8192
0
4096
-4096
8192
0
4096
-4096
8192
0
4096
-4096
8192
0
4096
-4096
8192
0
4096
-4096
8192
0
4096
-4096
8192
0
4096
-4096
8192
0
4096
-4096
8192
0
4096
-4096
8192
0
4096
-4096
8192
0
4096
-4096
8192
0
4096
-4096
8192
0
4096
-4096
8192
0
4096
-4096
8192
0
4096
-4096
8192
0
4096
-4096
8192
0
4096
-4096
8192
0
4096
-4096
8192
0
4096
-4096
8192
0
4096
-4096
8192
0
4096
-4096
8192
0
4096
-4096
8192
0
4096
-4096
8192
0
4096
-4096
8192
0
4096
-4096
8192
0
4096
-4096
8192
0
4096
-4096
8192
0
4096
-4096
8192
0
4096
-4096
8192
0
4096
-4096
8192
0
4096
-4096
8192
0
4096
-4096
8192
0
4096
-4096
8192
0
4096
-4096
8192
0
4096
-4096
8192
0
4096
-4096
8192
0
4096
-4096
8192
0
4096
-4096
8192
0
4096
-4096
8192
0
4096
-4096
8192
0
4096
-4096
8192
0
4096
-4096
8192
0
4096
-4096
8192
0
4096
-4096
8192
0
4096
-4096
8192
0
4096
-4096
8192
0
4096
-4096
8192
0
4096
-4096
8192
0
4096
-4096
8192
0
4096
-4096
8192
0
4096
-4096
8192
0
4096
-4096
8192
0
4096
-4096
8192
0
4096
-4096
8192
0
4096
-4096
8192
0
4096
-4096
8192
0
4096
-4096
8192
0
4096
-4096
8192
0
4096
-4096
8192
0
4096
-4096
8192
0
4096
-4096
8192
0
4096
-4096
8192
0
4096
-4096
8192
0
4096
-4096
8192
0
4096
-4096
8192
0
4096
-4096
8192
0
4096
-4096
8192
0
4096
-4096
8192
0
4096
-4096
8192
0
4096
-4096
8192
0
4096
-4096
8192
0
4096
-4096
8192
0
4096
-4096
8192
0
4096
-4096
8192
0
4096
-4096
8192
0
4096
-4096
8192
0
4096
-4096
8192
0
4096
-4096
8192
0
4096
-4096
8192
0
4096
-4096
8192
0
4096
-4096
8192
0
4096
-4096
8192
0
4096
-4096
8192
0
4096
-4096
8192
0
4096
-4096
8192
0
4096
-4096
8192
0
4096
-4096
8192
0
4096
-4096
8192
0
4096
-4096
8192
0
4096
-4096
8192
0
4096
-4096
8192
0
4096
-4096
8192
0
4096
-4096
8192
0
4096
-4096
8192
0
4096
-4096
8192
0
4096
-4096
8192
0
4096
-4096
8192
0
4096
-4096
8192
0
4096
-4096
8192
0
4096
-4096
8192
0
4096
-4096
8192
0
4096
-4096
8192
0
4096
-4096
8192
0
4096
-4096
8192
0
4096
-4096
8192
0
4096
-4096
8192
0
4096
-4096
8192
0
4096
-4096
8192
0
4096
-4096
8192
0
4096
-4096
8192
0
4096
-4096
8192
0
4096
-4096
8192
0
4096
-4096
8192
0
4096
-4096
8192
0
4096
-4096
8192
0
4096
-4096
8192
0
4096
-4096
8192
0
4096
-4096
8192
0
4096
-4096
8192
0
4096
-4096
8192
0
4096
-4096
8192
0
4096
-4096
8192
0
4096
-4096
8192
0
4096
-4096
8192
0
4096
-4096
8192
0
4096
-4096
8192
0
4096
-4096
8192
0
4096
-4096
8192
0
4096
-4096
8192
0
4096
-4096
8192
0
4096
-4096
8192
0
4096
-4096
8192
0
4096
-4096
8192
0
4096
-4096
8192
0
4096
-4096
8192
0
4096
-4096
8192
0
4096
-4096
8192
0
4096
-4096
8192
0
4096
-4096
8192
0
4096
-4096
8192
0
4096
-4096
8192
0
4096
-4096
8192
0
4096
-4096
8192
0
4096
-4096
8192
0
4096
-4096
8192
0
4096
-4096
8192
0
4096
-4096
8192
0
4096
-4096
8192
0
4096
-4096
8192
0
4096
-4096
8192
0
4096
-4096
8192
0
4096
-4096
8192
0
4096
-4096
8192
0
4096
-4096
8192
0
4096
-4096
8192
0
4096
-4096
8192
0
4096
-4096
8192
0
4096
-4096
8192
0
4096
-4096
8192
0
4096
-4096
8192
0
4096
-4096
8192
0
4096
-4096
8192
0
4096
-4096
8192
0
4096
-4096
8192
0
4096
-4096
8192
0
4096
-4096
8192
0
4096
-4096
8192
0
4096
-4096
8192
0
4096
-4096
8192
0
4096
-4096
8192
0
4096
-4096
8192
0
4096
-4096
8192
0
4096
-4096
8192
0
4096
-4096
8192
0
4096
-4096
8192
0
4096
-4096
8192
0
4096
-4096
8192
0
4096
-4096
8192
0
4096
-4096
8192
0
4096
-4096
8192
0
4096
-4096
8192
0
4096
-4096
8192
0
4096
-4096
8192
0
4096
-4096
8192
0
4096
-4096
8192
0
4096
-4096
8192
0
4096
-4096
8192
0
4096
-4096
8192
0
4096
-4096
8192
0
4096
-4096
8192
0
4096
-4096
8192
0
4096
-4096
8192
0
4096
-4096
8192
0
4096
-4096
8192
0
4096
-4096
8192
0
4096
-4096
8192
0
4096
-4096
8192
0
4096
-4096
8192
0
4096
-4096
8192
0
4096
-4096
8192
0
4096
-4096
8192
0
4096
-4096
8192
0
4096
-4096
8192
0
4096
-4096
8192
0
4096
-4096
8192
0
4096
-4096
8192
0
4096
-4096
8192
0
4096
-4096
8192
0
4096
-4096
8192
0
4096
-4096
8192
0
4096
-4096
8192
0
4096
-4096
8192
0
4096
-4096
8192
0
4096
-4096
8192
0
4096
-4096
8192
0
4096
-4096
8192
0
4096
-4096
8192
0
4096
-4096
8192
0
4096
-4096
8192
0
4096
-4096
8192
0
4096
-4096
8192
0
4096
-4096
8192
0
4096
-4096
8192
0
4096
-4096
8192
0
4096
-4096
8192
0
4096
-4096
8192
0
4096
-4096
8192
0
4096
-4096
8192
0
4096
-4096
8192
0
4096
-4096
8192
0
4096
-4096
8192
0
4096
-4096
8192
0
4096
-4096
8192
0
4096
-4096
8192
0
4096
-4096
8192
0
4096
-4096
8192
0
4096
-4096
8192
0
4096
-4096
8192
0
4096
-4096
8192
0
4096
-4096
8192
0
4096
-4096
8192
0
4096
-4096
8192
0
4096
-4096
8192
0
4096
-4096
8192
0
4096
-4096
8192
0
4096
-4096
8192
0
4096
-4096
8192
0
4096
-4096
8192
0
4096
-4096
8192
0
4096
-4096
8192
0
4096
-4096
8192
0
4096
-4096
8192
0
4096
-4096
8192
0
4096
-4096
8192
0
4096
-4096
8192
0
4096
-4096
8192
0
4096
-4096
8192
0
4096
-4096
8192
0
4096
-4096
8192
0
4096
-4096
8192
0
4096
-4096
8192
0
4096
-4096
8192
0
4096
-4096
8192
0
4096
-4096
8192
0
4096
-4096
8192
0
4096
-4096
8192
0
4096
-4096
8192
0
4096
-4096
8192
0
4096
-4096
8192
0
4096
-4096
8192
0
4096
-4096
8192
0
4096
-4096
8192
0
4096
-4096
8192
0
4096
-4096
8192
0
4096
-4096
8192
0
4096
-4096
8192
0
4096
-4096
8192
0
4096
-4096
8192
0
4096
-4096
8192
0
4096
-4096
8192
0
4096
-4096
8192
0
4096
-4096
8192
0
4096
-4096
8192
0
4096
-4096
8192
0
4096
-4096
8192
0
4096
-4096
8192
0
4096
-4096
8192
0
4096
-4096
8192
0
4096
-4096
8192
0
4096
-4096
8192
0
4096
-4096
8192
0
4096
-4096
8192
0
4096
-4096
8192
0
4096
-4096
8192
0
4096
-4096
8192
0
4096
-4096
8192
0
4096
-4096
8192
0
4096
-4096
8192
0
4096
-4096
8192
0
4096
-4096
8192
0
4096
-4096
8192
0
4096
-4096
8192
0
4096
-4096
8192
0
4096
-4096
8192
0
4096
-4096
8192
0
4096
-4096
8192
0
4096
-4096
8192
0
4096
-4096
8192
0
4096
-4096
8192
0
4096
-4096
8192
0
4096
-4096
8192
0
4096
-4096
8192
0
4096
-4096
8192
0
4096
-4096
8192
0
4096
-4096
8192
0
4096
-4096
8192
0
4096
-4096
8192
0
4096
-4096
8192
0
4096
-4096
8192
0
4096
-4096
8192
0
4096
-4096
8192
0
4096
-4096
8192
0
4096
-4096
8192
0
4096
-4096
8192
0
4096
-4096
8192
0
4096
-4096
8192
0
4096
-4096
8192
0
4096
-4096
8192
0
4096
-4096
8192
0
4096
-4096
8192
0
4096
-4096
8192
0
4096
-4096
8192
0
4096
-4096
8192
0
4096
-4096
8192
0
4096
-4096
8192
0
4096
-4096
8192
0
4096
-4096
8192
0
4096
-4096
8192
0
4096
-4096
8192
0
4096
-4096
8192
0
4096
-4096
8192
0
4096
-4096
8192
0
4096
-4096
8192
0
4096
-4096
8192
0
4096
-4096
8192
0
4096
-4096
8192
0
4096
-4096
8192
0
4096
-4096
8192
0
4096
-4096
8192
0
4096
-4096
8192
0
4096
-4096
8192
0
4096
-4096
8192
0
4096
-4096
8192
0
4096
-4096
8192
0
4096
-4096
8192
0
4096
-4096
8192
0
4096
-4096
8192
0
4096
-4096
8192
0
4096
-4096
8192
0
4096
-4096
8192
0
4096
-4096
8192
0
4096
-4096
8192
0
4096
-4096
8192
0
4096
-4096
8192
0
4096
-4096
8192
0
4096
-4096
8192
0
4096
-4096
8192
0
4096
-4096
8192
0
4096
-4096
8192
0
4096
-4096
8192
0
4096
-4096
8192
0
4096
-4096
8192
0
4096
-4096
8192
0
4096
-4096
8192
0
4096
-4096
8192
0
4096
-4096
8192
0
4096
-4096
8192
0
4096
-4096
8192
0
4096
-4096
8192
0
4096
-4096
8192
0
4096
-4096
8192
0
4096
-4096
8192
0
4096
-4096
8192
0
4096
-4096
8192
0
4096
-4096
8192
0
4096
-4096
8192
0
4096
-4096
8192
0
4096
-4096
8192
0
4096
-4096
8192
0
4096
-4096
8192
0
4096
-4096
8192
0
4096
-4096
8192
0
4096
-4096
8192
0
4096
-4096
8192
0
4096
-4096
8192
0
4096
-4096
8192
0
4096
-4096
8192
0
4096
-4096
8192
0
4096
-4096
8192
0
4096
-4096
8192
0
4096
-4096
8192
0
4096
-4096
8192
0
4096
-4096
8192
0
4096
-4096
8192
0
4096
-4096
8192
0
4096
-4096
8192
0
4096
-4096
8192
0
4096
-4096
8192
0
4096
-4096
8192
0
4096
-4096
8192
0
4096
-4096
8192
0
4096
-4096
8192
0
4096
-4096
8192
0
4096
-4096
8192
0
4096
-4096
8192
0
4096
-4096
8192
0
4096
-4096
8192
0
4096
-4096
8192
0
4096
-4096
8192
0
4096
-4096
8192
0
4096
-4096
8192
0
4096
-4096
8192
0
4096
-4096
8192
0
4096
-4096
8192
0
4096
-4096
8192
0
4096
-4096
8192
0
4096
-4096
8192
0
4096
-4096
8192
0
4096
-4096
8192
0
4096
-4096
8192
0
4096
-4096
8192
0
4096
-4096
8192
0
4096
-4096
8192
0
4096
-4096
8192
0
4096
-4096
8192
0
4096
-4096
8192
0
4096
-4096
8192
0
4096
-4096
8192
0
4096
-4096
8192
0
4096
-4096
8192
0
4096
-4096
8192
0
4096
-4096
8192
0
4096
-4096
8192
0
4096
-4096
8192
0
4096
-4096
8192
0
4096
-4096
8192
0
4096
-4096
8192
0
4096
-4096
8192
0
4096
-4096
8192
0
4096
-4096
8192
0
4096
-4096
8192
0
4096
-4096
8192
0
4096
-4096
8192
0
4096
-4096
8192
0
4096
-4096
8192
0
4096
-4096
8192
0
4096
-4096
8192
0
4096
-4096
8192
0
4096
-4096
8192
0
4096
-4096
8192
0
4096
-4096
8192
0
4096
-4096
8192
0
4096
-4096
8192
0
4096
-4096
8192
0
4096
-4096
8192
0
4096
-4096
8192
0
4096
-4096
8192
0
4096
-4096
8192
0
4096
-4096
8192
0
4096
-4096
8192
0
4096
-4096
8192
0
4096
-4096
8192
0
4096
-4096
8192
0
4096
-4096
8192
0
4096
-4096
8192
0
4096
-4096
8192
0
4096
-4096
8192
0
4096
-4096
8192
0
4096
-4096
8192
0
4096
-4096
8192
0
4096
-4096
8192
0
4096
-4096
8192
0
4096
-4096
8192
0
4096
-4096
8192
0
4096
-4096
8192
0
4096
-4096
8192
0
4096
-4096
8192
0
4096
-4096
8192
0
4096
-4096
8192
0
4096
-4096
8192
0
4096
-4096
8192
0
4096
-4096
8192
0
4096
-4096
8192
0
4096
-4096
8192
0
4096
-4096
8192
0
4096
-4096
8192
0
4096
-4096
8192
0
4096
-4096
8192
0
4096
-4096
8192
0
4096
-4096
8192
0
4096
-4096
8192
0
4096
-4096
8192
0
4096
-4096
8192
0
4096
-4096
8192
0
4096
-4096
8192
0
4096
-4096
8192
0
4096
-4096
8192
0
4096
-4096
8192
0
4096
-4096
8192
0
4096
-4096
8192
0
4096
-4096
8192
0
4096
-4096
8192
0
4096
-4096
8192
0
4096
-4096
8192
0
4096
-4096
8192
0
4096
-4096
8192
0
4096
-4096
8192
0
4096
-4096
8192
0
4096
-4096
8192
0
4096
-4096
8192
0
4096
-4096
8192
0
4096
-4096
8192
0
4096
-4096
8192
0
4096
-4096
8192
0
4096
-4096
8192
0
4096
-4096
8192
0
4096
-4096
8192
0
4096
-4096
8192
0
4096
-4096
8192
0
4096
-4096
8192
0
4096
-4096
8192
0
4096
-4096
8192
0
4096
-4096
8192
0
4096
-4096
8192
0
4096
-4096
8192
0
4096
-4096
8192
0
4096
-4096
8192
0
4096
-4096
8192
0
4096
-4096
8192
0
4096
-4096
8192
0
4096
-4096
8192
0
4096
-4096
8192
0
4096
-4096
8192
0
4096
-4096
8192
0
4096
-4096
8192
0
4096
-4096
8192
0
4096
-4096
8192
0
4096
-4096
8192
0
4096
-4096
8192
0
4096
-4096
8192
0
4096
-4096
8192
0
4096
-4096
8192
0
4096
-4096
8192
0
4096
-4096
8192
0
4096
-4096
8192
0
4096
-4096
8192
0
4096
-4096
8192
0
4096
-4096
8192
0
4096
-4096
8192
0
4096
-4096
8192
0
4096
-4096
8192
0
4096
-4096
8192
0
4096
-4096
8192
0
4096
-4096
8192
0
4096
-4096
8192
0
4096
-4096
8192
0
4096
-4096
8192
0
4096
-4096
8192
0
4096
-4096
8192
0
4096
-4096
8192
0
4096
-4096
8192
0
4096
-4096
8192
0
4096
-4096
8192
0
4096
-4096
8192
0
4096
-4096
8192
0
4096
-4096
8192
0
4096
-4096
8192
0
4096
-4096
8192
0
4096
-4096
8192
0
4096
-4096
8192
0
4096
-4096
8192
0
4096
-4096
8192
0
4096
-4096
8192
0
4096
-4096
8192
0
4096
-4096
8192
0
4096
-4096
8192
0
4096
-4096
8192
0
4096
-4096
8192
0
4096
-4096
8192
0
4096
-4096
8192
0
4096
-4096
8192
0
4096
-4096
8192
0
4096
-4096
8192
0
4096
-4096
8192
0
4096
-4096
8192
0
4096
-4096
8192
0
4096
-4096
8192
0
4096
-4096
8192
0
4096
-4096
8192
0
4096
-4096
8192
0
4096
-4096
8192
0
4096
-4096
8192
0
4096
-4096
8192
0
4096
-4096
8192
0
4096
-4096
8192
0
4096
-4096
8192
0
4096
-4096
8192
0
4096
-4096
8192
0
4096
-4096
8192
0
4096
-4096
8192
0
4096
-4096
8192
0
4096
-4096
8192
0
4096
-4096
8192
0
4096
-4096
8192
0
4096
-4096
8192
0
4096
-4096
8192
0
4096
-4096
8192
0
4096
-4096
8192
0
4096
-4096
8192
0
4096
-4096
8192
0
4096
-4096
8192
0
4096
-4096
8192
0
4096
-4096
8192
0
4096
-4096
8192
0
4096
-4096
8192
0
4096
-4096
8192
0
4096
-4096
8192
0
4096
-4096
8192
0
4096
-4096
8192
0
4096
-4096
8192
0
4096
-4096
8192
0
4096
-4096
8192
0
4096
-4096
8192
0
4096
-4096
8192
0
4096
-4096
8192
0
4096
-4096
8192
0
4096
-4096
8192
0
4096
-4096
8192
0
4096
-4096
8192
0
4096
-4096
8192
0
4096
-4096
8192
0
4096
-4096
8192
0
4096
-4096
8192
0
4096
-4096
8192
0
4096
-4096
8192
0
4096
-4096
8192
0
4096
-4096
8192
0
4096
-4096
8192
0
4096
-4096
8192
0
4096
-4096
8192
0
4096
-4096
8192
0
4096
-4096
8192
0
4096
-4096
8192
0
4096
-4096
8192
0
4096
-4096
8192
0
4096
-4096
8192
0
4096
-4096
8192
0
4096
-4096
8192
0
4096
-4096
8192
0
4096
-4096
8192
0
4096
-4096
8192
0
4096
-4096
8192
0
4096
-4096
8192
0
4096
-4096
8192
0
4096
-4096
8192
0
4096
-4096
8192
0
4096
-4096
8192
0
4096
-4096
8192
0
4096
-4096
8192
0
4096
-4096
8192
0
4096
-4096
8192
0
4096
-4096
8192
0
4096
-4096
8192
0
4096
-4096
8192
0
4096
-4096
8192
0
4096
-4096
8192
0
4096
-4096
8192
0
4096
-4096
8192
0
4096
-4096
8192
0
4096
-4096
8192
0
4096
-4096
8192
0
4096
-4096
8192
0
4096
-4096
8192
0
4096
-4096
8192
0
4096
-4096
8192
0
4096
-4096
8192
0
4096
-4096
8192
0
4096
-4096
8192
0
4096
-4096
8192
0
4096
-4096
8192
0
4096
-4096
8192
0
4096
-4096
8192
0
4096
-4096
8192
0
4096
-4096
8192
0
4096
-4096
8192
0
4096
-4096
8192
0
4096
-4096
8192
0
4096
-4096
8192
0
4096
-4096
8192
0
4096
-4096
8192
0
4096
-4096
8192
0
4096
-4096
8192
0
4096
-4096
8192
0
4096
-4096
8192
0
4096
-4096
8192
0
4096
-4096
8192
0
4096
-4096
8192
0
4096
-4096
8192
0
4096
-4096
8192
0
4096
-4096
8192
0
4096
-4096
8192
0
4096
-4096
8192
0
4096
-4096
8192
0
4096
-4096
8192
0
4096
-4096
8192
0
4096
-4096
8192
0
4096
-4096
8192
0
4096
-4096
8192
0
4096
-4096
8192
0
4096
-4096
8192
0
4096
-4096
8192
0
4096
-4096
8192
0
4096
-4096
8192
0
4096
-4096
8192
0
4096
-4096
8192
0
4096
-4096
8192
0
4096
-4096
8192
0
4096
-4096
8192
0
4096
-4096
8192
0
4096
-4096
8192
0
4096
-4096
8192
0
4096
-4096
8192
0
4096
-4096
8192
0
4096
-4096
8192
0
4096
-4096
8192
0
4096
-4096
8192
0
4096
-4096
8192
0
4096
-4096
8192
0
4096
-4096
8192
0
4096
-4096
8192
0
4096
-4096
8192
0
4096
-4096
8192
0
4096
-4096
8192
0
4096
-4096
8192
0
4096
-4096
8192
0
4096
-4096
8192
0
4096
-4096
8192
0
4096
-4096
8192
0
4096
-4096
8192
0
4096
-4096
8192
0
4096
-4096
8192
0
4096
-4096
8192
0
4096
-4096
8192
0
4096
-4096
8192
0
4096
-4096
8192
0
4096
-4096
8192
0
4096
-4096
8192
0
4096
-4096
8192
0
4096
-4096
8192
0
4096
-4096
8192
0
4096
-4096
8192
0
4096
-4096
8192
0
4096
-4096
8192
0
4096
-4096
8192
0
4096
-4096
8192
0
4096
-4096
8192
0
4096
-4096
8192
0
4096
-4096
8192
0
4096
-4096
8192
0
4096
-4096
8192
0
4096
-4096
8192
0
4096
-4096
8192
0
4096
-4096
8192
0
4096
-4096
8192
0
4096
-4096
8192
0
4096
-4096
8192
0
4096
-4096
8192
0
4096
-4096
8192
0
4096
-4096
8192
0
4096
-4096
8192
0
4096
-4096
8192
0
4096
-4096
8192
0
4096
-4096
8192
0
4096
-4096
8192
0
4096
-4096
8192
0
4096
-4096
8192
0
4096
-4096
8192
0
4096
-4096
8192
0
4096
-4096
8192
0
4096
-4096
8192
0
4096
-4096
8192
0
4096
-4096
8192
0
4096
-4096
8192
0
4096
-4096
8192
0
4096
-4096
8192
0
4096
-4096
8192
0
4096
-4096
8192
0
4096
-4096
8192
0
4096
-4096
8192
0
4096
-4096
8192
0
4096
-4096
8192
0
4096
-4096
8192
0
4096
-4096
8192
0
4096
-4096
8192
0
4096
-4096
8192
0
4096
-4096
8192
0
4096
-4096
8192
0
4096
-4096
8192
0
4096
-4096
8192
0
4096
-4096
8192
0
4096
-4096
8192
0
4096
-4096
8192
0
4096
-4096
8192
0
4096
-4096
8192
0
4096
-4096
8192
0
4096
-4096
8192
0
4096
-4096
8192
0
4096
-4096
8192
0
4096
-4096
8192
0
4096
-4096
8192
0
4096
-4096
8192
0
4096
-4096
8192
0
4096
-4096
8192
0
4096
-4096
8192
0
4096
-4096
8192
0
4096
-4096
8192
0
4096
-4096
8192
0
4096
-4096
8192
0
4096
-4096
8192
0
4096
-4096
8192
0
4096
-4096
8192
0
4096
-4096
8192
0
4096
-4096
8192
0
4096
-4096
8192
0
4096
-4096
8192
0
4096
-4096
8192
0
4096
-4096
8192
0
4096
-4096
8192
0
4096
-4096
8192
0
4096
-4096
8192
0
4096
-4096
8192
0
4096
-4096
8192
0
4096
-4096
8192
0
4096
-4096
8192
0
4096
-4096
8192
0
4096
-4096
8192
0
4096
-4096
8192
0
4096
-4096
8192
0
4096
-4096
8192
0
4096
-4096
8192
0
4096
-4096
8192
0
4096
-4096
8192
0
4096
-4096
8192
0
4096
-4096
8192
0
4096
-4096
8192
0
4096
-4096
8192
0
4096
-4096
8192
0
4096
-4096
8192
0
4096
-4096
8192
0
4096
-4096
8192
0
4096
-4096
8192
0
4096
-4096
8192
0
4096
-4096
8192
0
4096
-4096
8192
0
4096
-4096
8192
0
4096
-4096
8192
0
4096
-4096
8192
0
4096
-4096
8192
0
4096
-4096
8192
0
4096
-4096
8192
0
4096
-4096
8192
0
4096
-4096
8192
0
4096
-4096
8192
0
4096
-4096
8192
0
4096
-4096
8192
0
4096
-4096
8192
0
4096
-4096
8192
0
4096
-4096
8192
0
4096
-4096
8192
0
4096
-4096
8192
0
4096
-4096
8192
0
4096
-4096
8192
0
4096
-4096
8192
0
4096
-4096
8192
0
4096
-4096
8192
0
4096
-4096
8192
0
4096
-4096
8192
0
4096
-4096
8192
0
4096
-4096
8192
0
4096
-4096
8192
0
4096
-4096
8192
0
4096
-4096
8192
0
4096
-4096
8192
0
4096
-4096
8192
0
4096
-4096
8192
0
4096
-4096
8192
0
4096
-4096
8192
0
4096
-4096
8192
0
4096
-4096
8192
0
4096
-4096
8192
0
4096
-4096
8192
0
4096
-4096
8192
0
4096
-4096
8192
0
4096
-4096
8192
0
4096
-4096
8192
0
4096
-4096
8192
0
4096
-4096
8192
0
4096
-4096
8192
0
4096
-4096
8192
0
4096
-4096
8192
0
4096
-4096
8192
0
4096
-4096
8192
0
4096
-4096
8192
0
4096
-4096
8192
0
4096
-4096
8192
0
4096
-4096
8192
0
4096
-4096
8192
0
4096
-4096
8192
0
4096
-4096
8192
0
4096
-4096
8192
0
4096
-4096
8192
0
4096
-4096
8192
0
4096
-4096
8192
0
4096
-4096
8192
0
4096
-4096
8192
0
4096
-4096
8192
0
4096
-4096
8192
0
4096
-4096
8192
0
4096
-4096
8192
0
4096
-4096
8192
0
4096
-4096
8192
0
4096
-4096
8192
0
4096
-4096
8192
0
4096
-4096
8192
0
4096
-4096
8192
0
4096
-4096
8192
0
4096
-4096
8192
0
4096
-4096
8192
0
4096
-4096
8192
0
4096
-4096
8192
0
4096
-4096
8192
0
4096
-4096
8192
0
4096
-4096
8192
0
4096
-4096
8192
0
4096
-4096
8192
0
4096
-4096
8192
0
4096
-4096
8192
0
4096
-4096
8192
0
4096
-4096
8192
0
4096
-4096
8192
0
4096
-4096
8192
0
4096
-4096
8192
0
4096
-4096
8192
0
4096
-4096
8192
0
4096
-4096
8192
0
4096
-4096
8192
0
4096
-4096
8192
0
4096
-4096
8192
0
4096
-4096
8192
0
4096
-4096
8192
0
4096
-4096
8192
0
4096
-4096
8192
0
4096
-4096
8192
0
4096
-4096
8192
0
4096
-4096
8192
0
4096
-4096
8192
0
4096
-4096
8192
0
4096
-4096
8192
0
4096
-4096
8192
0
4096
-4096
8192
0
4096
-4096
8192
0
4096
-4096
8192
0
4096
-4096
8192
0
4096
-4096
8192
0
4096
-4096
8192
0
4096
-4096
8192
0
4096
-4096
8192
0
4096
-4096
8192
0
4096
-4096
8192
0
4096
-4096
8192
0
4096
-4096
8192
0
4096
-4096
8192
0
4096
-4096
8192
0
4096
-4096
8192
0
4096
-4096
8192
0
4096
-4096
8192
0
4096
-4096
8192
0
4096
-4096
8192
0
4096
-4096
8192
0
4096
-4096
8192
0
4096
-4096
8192
0
4096
-4096
8192
0
4096
-4096
8192
0
4096
-4096
8192
0
4096
-4096
8192
0
4096
-4096
8192
0
4096
-4096
8192
0
4096
-4096
8192
0
4096
-4096
8192
0
4096
-4096
8192
0
4096
-4096
8192
0
4096
-4096
8192
0
4096
-4096
8192
0
4096
-4096
8192
0
4096
-4096
8192
0
4096
-4096
8192
0
4096
-4096
8192
0
4096
-4096
8192
0
4096
-4096
8192
0
4096
-4096
8192
0
4096
-4096
8192
0
4096
-4096
8192
0
4096
-4096
8192
0
4096
-4096
8192
0
4096
-4096
8192
0
4096
-4096
8192
0
4096
-4096
8192
0
4096
-4096
8192
0
4096
-4096
8192
0
4096
-4096
8192
0
4096
-4096
8192
0
4096
-4096
8192
0
4096
-4096
8192
0
4096
-4096
8192
0
4096
-4096
8192
0
4096
-4096
8192
0
4096
-4096
8192
0
4096
-4096
8192
0
4096
-4096
8192
0
4096
-4096
8192
0
4096
-4096
8192
0
4096
-4096
8192
0
4096
-4096
8192
0
4096
-4096
8192
0
4096
-4096
8192
0
4096
-4096
8192
0
4096
-4096
8192
0
4096
-4096
8192
0
4096
-4096
8192
0
4096
-4096
8192
0
4096
-4096
8192
0
4096
-4096
8192
0
4096
-4096
8192
0
4096
-4096
8192
0
4096
-4096
8192
0
4096
-4096
8192
0
4096
-4096
8192
0
4096
-4096
8192
0
4096
-4096
8192
0
4096
-4096
8192
0
4096
-4096
8192
0
4096
-4096
8192
0
4096
-4096
8192
0
4096
-4096
8192
0
4096
-4096
8192
0
4096
-4096
8192
0
4096
-4096
8192
0
4096
-4096
8192
0
4096
-4096
8192
0
4096
-4096
8192
0
4096
-4096
8192
0
4096
-4096
8192
0
4096
-4096
8192
0
4096
-4096
8192
0
4096
-4096
8192
0
4096
-4096
8192
0
4096
-4096
8192
0
4096
-4096
8192
0
4096
-4096
8192
0
4096
-4096
8192
0
4096
-4096
8192
0
4096
-4096
8192
0
4096
-4096
8192
0
4096
-4096
8192
0
4096
-4096
8192
0
4096
-4096
8192
0
4096
-4096
8192
0
4096
-4096
8192
0
4096
-4096
8192
0
4096
-4096
8192
0
4096
-4096
8192
0
4096
-4096
8192
0
4096
-4096
8192
0
4096
-4096
8192
0
4096
-4096
8192
0
4096
-4096
8192
0
4096
-4096
8192
0
4096
-4096
8192
0
4096
-4096
8192
0
4096
-4096
8192
0
4096
-4096
8192
0
4096
-4096
8192
0
4096
-4096
8192
0
4096
-4096
8192
0
4096
-4096
8192
0
4096
-4096
8192
0
4096
-4096
8192
0
4096
-4096
8192
0
4096
-4096
8192
0
4096
-4096
8192
0
4096
-4096
8192
0
4096
-4096
8192
0
4096
-4096
8192
0
4096
-4096
8192
0
4096
-4096
8192
0
4096
-4096
8192
0
4096
-4096
8192
0
4096
-4096
8192
0
4096
-4096
8192
0
4096
-4096
8192
0
4096
-4096
8192
0
4096
-4096
8192
0
4096
-4096
8192
0
4096
-4096
8192
0
4096
-4096
8192
0
4096
-4096
8192
0
4096
-4096
8192
0
4096
-4096
8192
0
4096
-4096
8192
0
4096
-4096
8192
0
4096
-4096
8192
0
4096
-4096
8192
0
4096
-4096
8192
0
4096
-4096
8192
0
4096
-4096
8192
0
4096
-4096
8192
0
4096
-4096
8192
0
4096
-4096
8192
0
4096
-4096
8192
0
4096
-4096
8192
0
4096
-4096
8192
0
4096
-4096
8192
0
4096
-4096
8192
0
4096
-4096
8192
0
4096
-4096
8192
0
4096
-4096
8192
0
4096
-4096
8192
0
4096
-4096
8192
0
4096
-4096
8192
0
4096
-4096
8192
0
4096
-4096
8192
0
4096
-4096
8192
0
4096
-4096
8192
0
4096
-4096
8192
0
4096
-4096
8192
0
4096
-4096
8192
0
4096
-4096
8192
0
4096
-4096
8192
0
4096
-4096
8192
0
4096
-4096
8192
0
4096
-4096
8192
0
4096
-4096
8192
0
4096
-4096
8192
0
4096
-4096
8192
0
4096
-4096
8192
0
4096
-4096
8192
0
4096
-4096
8192
0
4096
-4096
8192
0
4096
-4096
8192
0
4096
-4096
8192
0
4096
-4096
8192
0
4096
-4096
8192
0
4096
-4096
8192
0
4096
-4096
8192
0
4096
-4096
8192
0
4096
-4096
8192
0
4096
-4096
8192
0
4096
-4096
8192
0
4096
-4096
8192
0
4096
-4096
8192
0
4096
-4096
8192
0
4096
-4096
8192
0
4096
-4096
8192
0
4096
-4096
8192
0
4096
-4096
8192
0
4096
-4096
8192
0
4096
-4096
8192
0
4096
-4096
8192
0
4096
-4096
8192
0
4096
-4096
8192
0
4096
-4096
8192
0
4096
-4096
8192
0
4096
-4096
8192
0
4096
-4096
8192
0
4096
-4096
8192
0
4096
-4096
8192
0
4096
-4096
8192
0
4096
-4096
8192
0
4096
-4096
8192
0
4096
-4096
8192
0
4096
-4096
8192
0
4096
-4096
8192
0
4096
-4096
8192
0
4096
-4096
8192
0
4096
-4096
8192
0
4096
-4096
8192
0
4096
-4096
8192
0
4096
-4096
8192
0
4096
-4096
8192
0
4096
-4096
8192
0
4096
-4096
8192
0
4096
-4096
8192
0
4096
-4096
8192
0
4096
-4096
8192
0
4096
-4096
8192
0
4096
-4096
8192
0
4096
-4096
8192
0
4096
-4096
8192
0
4096
-4096
8192
0
4096
-4096
8192
0
4096
-4096
8192
0
4096
-4096
8192
0
4096
-4096
8192
0
4096
-4096
8192
0
4096
-4096
8192
0
4096
-4096
8192
0
4096
-4096
8192
0
4096
-4096
8192
0
4096
-4096
8192
0
4096
-4096
8192
0
4096
-4096
8192
0
4096
-4096
8192
0
4096
-4096
8192
0
4096
-4096
8192
0
4096
-4096
8192
0
4096
-4096
8192
0
4096
-4096
8192
0
4096
-4096
8192
0
4096
-4096
8192
0
4096
-4096
8192
0
4096
-4096
8192
0
4096
-4096
8192
0
4096
-4096
8192
0
4096
-4096
8192
0
4096
-4096
8192
0
4096
-4096
8192
0
4096
-4096
8192
0
4096
-4096
8192
0
4096
-4096
8192
0
4096
-4096
8192
0
4096
-4096
8192
0
4096
-4096
8192
0
4096
-4096
8192
0
4096
-4096
8192
0
4096
-4096
8192
0
4096
-4096
8192
0
4096
-4096
8192
0
4096
-4096
8192
0
4096
-4096
8192
0
4096
-4096
8192
0
4096
-4096
8192
0
4096
-4096
8192
0
4096
-4096
8192
0
4096
-4096
8192
0
4096
-4096
8192
0
4096
-4096
8192
0
4096
-4096
8192
0
4096
-4096
8192
0
4096
-4096
8192
0
4096
-4096
8192
0
4096
-4096
8192
0
4096
-4096
8192
0
4096
-4096
8192
0
4096
-4096
8192
0
4096
-4096
8192
0
4096
-4096
8192
0
4096
-4096
8192
0
4096
-4096
8192
0
4096
-4096
8192
0
4096
-4096
8192
0
4096
-4096
8192
0
4096
-4096
8192
0
4096
-4096
8192
0
4096
-4096
8192
0
4096
-4096
8192
0
4096
-4096
8192
0
4096
-4096
8192
0
4096
-4096
8192
0
4096
-4096
8192
0
4096
-4096
8192
0
4096
-4096
8192
0
4096
-4096
8192
0
4096
-4096
8192
0
4096
-4096
8192
0
4096
-4096
8192
0
4096
-4096
8192
0
4096
-4096
8192
0
4096
-4096
8192
0
4096
-4096
8192
0
4096
-4096
8192
0
4096
-4096
8192
0
4096
-4096
8192
0
4096
-4096
8192
0
4096
-4096
8192
0
4096
-4096
8192
0
4096
-4096
8192
0
4096
-4096
8192
0
4096
-4096
8192
0
4096
-4096
8192
0
4096
-4096
8192
0
4096
-4096
8192
0
4096
-4096
8192
0
4096
-4096
8192
0
4096
-4096
8192
0
4096
-4096
8192
0
4096
-4096
8192
0
4096
-4096
8192
0
4096
-4096
8192
0
4096
-4096
8192
0
4096
-4096
8192
0
4096
-4096
8192
0
4096
-4096
8192
0
4096
-4096
8192
0
4096
-4096
8192
0
4096
-4096
8192
0
4096
-4096
8192
0
4096
-4096
8192
0
4096
-4096
8192
0
4096
-4096
8192
0
4096
-4096
8192
0
4096
-4096
8192
0
4096
-4096
8192
0
4096
-4096
8192
0
4096
-4096
8192
0
4096
-4096
8192
0
4096
-4096
8192
0
4096
-4096
8192
0
4096
-4096
8192
0
4096
-4096
8192
0
4096
-4096
8192
0
4096
-4096
8192
0
4096
-4096
8192
0
4096
-4096
8192
0
4096
-4096
8192
0
4096
-4096
8192
0
4096
-4096
8192
0
4096
-4096
8192
0
4096
-4096
8192
0
4096
-4096
8192
0
4096
-4096
8192
0
4096
-4096
8192
0
4096
-4096
8192
0
4096
-4096
8192
0
4096
-4096
8192
0
4096
-4096
8192
0
4096
-4096
8192
0
4096
-4096
8192
0
4096
-4096
8192
0
4096
-4096
8192
0
4096
-4096
8192
0
4096
-4096
8192
0
4096
-4096
8192
0
4096
-4096
8192
0
4096
-4096
8192
0
4096
-4096
8192
0
4096
-4096
8192
0
4096
-4096
8192
0
4096
-4096
8192
0
4096
-4096
8192
0
4096
-4096
8192
0
4096
-4096
8192
0
4096
-4096
8192
0
4096
-4096
8192
0
4096
-4096
8192
0
4096
-4096
8192
0
4096
-4096
8192
0
4096
-4096
8192
0
4096
-4096
8192
0
4096
-4096
8192
0
4096
-4096
8192
0
4096
-4096
8192
0
4096
-4096
8192
0
4096
-4096
8192
0
4096
-4096
8192
0
4096
-4096
8192
0
4096
-4096
8192
0
4096
-4096
8192
0
4096
-4096
8192
0
4096
-4096
8192
0
4096
-4096
8192
0
4096
-4096
8192
0
4096
-4096
8192
0
4096
-4096
8192
0
4096
-4096
8192
0
4096
-4096
8192
0
4096
-4096
8192
0
4096
-4096
8192
0
4096
-4096
8192
0
4096
-4096
8192
0
4096
-4096
8192
0
4096
-4096
8192
0
4096
-4096
8192
0
4096
-4096
8192
0
4096
-4096
8192
0
4096
-4096
8192
0
4096
-4096
8192
0
4096
-4096
8192
0
4096
-4096
8192
0
4096
-4096
8192
0
4096
-4096
8192
0
4096
-4096
8192
0
4096
-4096
8192
0
4096
-4096
8192
0
4096
-4096
8192
0
4096
-4096
8192
0
4096
-4096
8192
0
4096
-4096
8192
0
4096
-4096
8192
0
4096
-4096
8192
0
4096
-4096
8192
0
4096
-4096
8192
0
4096
-4096
8192
0
4096
-4096
8192
0
4096
-4096
8192
0
4096
-4096
8192
0
4096
-4096
8192
0
4096
-4096
8192
0
4096
-4096
8192
0
4096
-4096
8192
0
4096
-4096
8192
0
4096
-4096
8192
0
4096
-4096
8192
0
4096
-4096
8192
0
4096
-4096
8192
0
4096
-4096
8192
0
4096
-4096
8192
0
4096
-4096
8192
0
4096
-4096
8192
0
4096
-4096
8192
0
4096
-4096
8192
0
4096
-4096
8192
0
4096
-4096
8192
0
4096
-4096
8192
0
4096
-4096
8192
0
4096
-4096
8192
0
4096
-4096
8192
0
4096
-4096
8192
0
4096
-4096
8192
0
4096
-4096
8192
0
4096
-4096
8192
0
4096
-4096
8192
0
4096
-4096
8192
0
4096
-4096
8192
0
4096
-4096
8192
0
4096
-4096
8192
0
4096
-4096
8192
0
4096
-4096
8192
0
4096
-4096
8192
0
4096
-4096
8192
0
4096
-4096
8192
0
4096
-4096
8192
0
4096
-4096
8192
0
4096
-4096
8192
0
4096
-4096
8192
0
4096
-4096
8192
0
4096
-4096
8192
0
4096
-4096
8192
0
4096
-4096
8192
0
4096
-4096
8192
0
4096
-4096
8192
0
4096
-4096
8192
0
4096
-4096
8192
0
4096
-4096
8192
0
4096
-4096
8192
0
4096
-4096
8192
0
4096
-4096
8192
0
4096
-4096
8192
0
4096
-4096
8192
0
4096
-4096
8192
0
4096
-4096
8192
0
4096
-4096
8192
0
4096
-4096
8192
0
4096
-4096
8192
0
4096
-4096
8192
0
4096
-4096
8192
0
4096
-4096
8192
0
4096
-4096
8192
0
4096
-4096
8192
0
4096
-4096
8192
0
4096
-4096
8192
0
4096
-4096
8192
0
4096
-4096
8192
0
4096
-4096
8192
0
4096
-4096
8192
0
4096
-4096
8192
0
4096
-4096
8192
0
4096
-4096
8192
0
4096
-4096
8192
0
4096
-4096
8192
0
4096
-4096
8192
0
4096
-4096
8192
0
4096
-4096
8192
0
4096
-4096
8192
0
4096
-4096
8192
0
4096
-4096
8192
0
4096
-4096
8192
0
4096
-4096
8192
0
4096
-4096
8192
0
4096
-4096
8192
0
4096
-4096
8192
0
4096
-4096
8192
0
4096
-4096
8192
0
4096
-4096
8192
0
4096
-4096
8192
0
4096
-4096
8192
0
4096
-4096
8192
0
4096
-4096
8192
0
4096
-4096
8192
0
4096
-4096
8192
0
4096
-4096
8192
0
4096
-4096
8192
0
4096
-4096
8192
0
4096
-4096
8192
0
4096
-4096
8192
0
4096
-4096
8192
0
4096
-4096
8192
0
4096
-4096
8192
0
4096
-4096
8192
0
4096
-4096
8192
0
4096
-4096
8192
0
4096
-4096
8192
0
4096
-4096
8192
0
4096
-4096
8192
0
4096
-4096
8192
0
4096
-4096
8192
0
4096
-4096
8192
0
4096
-4096
8192
0
4096
-4096
8192
0
4096
-4096
8192
0
4096
-4096
8192
0
4096
-4096
8192
0
4096
-4096
8192
0
4096
-4096
8192
0
4096
-4096
8192
0
4096
-4096
8192
0
4096
-4096
8192
0
4096
-4096
8192
0
4096
-4096
8192
0
4096
-4096
8192
0
4096
-4096
8192
0
4096
-4096
8192
0
4096
-4096
8192
0
4096
-4096
8192
0
4096
-4096
8192
0
4096
-4096
8192
0
4096
-4096
8192
0
4096
-4096
8192
0
4096
-4096
8192
0
4096
-4096
8192
0
4096
-4096
8192
0
4096
-4096
8192
0
4096
-4096
8192
0
4096
-4096
8192
0
4096
-4096
8192
0
4096
-4096
8192
0
4096
-4096
8192
0
4096
-4096
8192
0
4096
-4096
8192
0
4096
-4096
8192
0
4096
-4096
8192
0
4096
-4096
8192
0
4096
-4096
8192
0
4096
-4096
8192
0
4096
-4096
8192
0
4096
-4096
8192
0
4096
-4096
8192
0
4096
-4096
8192
0
4096
-4096
8192
0
4096
-4096
8192
0
4096
-4096
8192
0
4096
-4096
8192
0
4096
-4096
8192
0
4096
-4096
8192
0
4096
-4096
8192
0
4096
-4096
8192
0
4096
-4096
8192
0
4096
-4096
8192
0
4096
-4096
8192
0
4096
-4096
8192
0
4096
-4096
8192
0
4096
-4096
8192
0
4096
-4096
8192
0
4096
-4096
8192
0
4096
-4096
8192
0
4096
-4096
8192
0
4096
-4096
8192
0
4096
-4096
8192
0
4096
-4096
8192
0
4096
-4096
8192
0
4096
-4096
8192
0
4096
-4096
8192
0
4096
-4096
8192
0
4096
-4096
8192
0
4096
-4096
8192
0
4096
-4096
8192
0
4096
-4096
8192
0
4096
-4096
8192
0
4096
-4096
8192
0
4096
-4096
8192
0
4096
-4096
8192
0
4096
-4096
8192
0
4096
-4096
8192
0
4096
-4096
8192
0
4096
-4096
8192
0
4096
-4096
8192
0
4096
-4096
8192
0
4096
-4096
8192
0
4096
-4096
8192
0
4096
-4096
8192
0
4096
-4096
8192
0
4096
-4096
8192
0
4096
-4096
8192
0
4096
-4096
8192
0
4096
-4096
8192
0
4096
-4096
8192
0
4096
-4096
8192
0
4096
-4096
8192
0
4096
-4096
8192
0
4096
-4096
8192
0
4096
-4096
8192
0
4096
-4096
8192
0
4096
-4096
8192
0
4096
-4096
8192
0
4096
-4096
8192
0
4096
-4096
8192
0
4096
-4096
8192
0
4096
-4096
8192
0
4096
-4096
8192
0
4096
-4096
8192
0
4096
-4096
8192
0
4096
-4096
8192
0
4096
-4096
8192
0
4096
-4096
8192
0
4096
-4096
8192
0
4096
-4096
8192
0
4096
-4096
8192
0
4096
-4096
8192
0
4096
-4096
8192
0
4096
-4096
8192
0
4096
-4096
8192
0
4096
-4096
8192
0
4096
-4096
8192
0
4096
-4096
8192
0
4096
-4096
8192
0
4096
-4096
8192
0
4096
-4096
8192
0
4096
-4096
8192
0
4096
-4096
8192
0
4096
-4096
8192
0
4096
-4096
8192
0
4096
-4096
8192
0
4096
-4096
8192
0
4096
-4096
8192
0
4096
-4096
8192
0
4096
-4096
8192
0
4096
-4096
8192
0
4096
-4096
8192
0
4096
-4096
8192
0
4096
-4096
8192
0
4096
-4096
8192
0
4096
-4096
8192
0
4096
-4096
8192
0
4096
-4096
8192
0
4096
-4096
8192
0
4096
-4096
8192
0
4096
-4096
8192
0
4096
-4096
8192
0
4096
-4096
8192
0
4096
-4096
8192
0
4096
-4096
8192
0
4096
-4096
8192
0
4096
-4096
8192
0
4096
-4096
8192
0
4096
-4096
8192
0
4096
-4096
8192
0
4096
-4096
8192
0
4096
-4096
8192
0
4096
-4096
8192
0
4096
-4096
8192
0
4096
-4096
8192
0
4096
-4096
8192
0
4096
-4096
8192
0
4096
-4096
8192
0
4096
-4096
8192
0
4096
-4096
8192
0
4096
-4096
8192
0
4096
-4096
8192
0
4096
-4096
8192
0
4096
-4096
8192
0
4096
-4096
8192
0
4096
-4096
8192
0
4096
-4096
8192
0
4096
-4096
8192
0
4096
-4096
8192
0
4096
-4096
8192
0
4096
-4096
8192
0
4096
-4096
8192
0
4096
-4096
8192
0
4096
-4096
8192
0
4096
-4096
8192
0
4096
-4096
8192
0
4096
-4096
8192
0
4096
-4096
8192
0
4096
-4096
8192
0
4096
-4096
8192
0
4096
-4096
8192
0
4096
-4096
8192
0
4096
-4096
8192
0
4096
-4096
8192
0
4096
-4096
8192
0
4096
-4096
8192
0
4096
-4096
8192
0
4096
-4096
8192
0
4096
-4096
8192
0
4096
-4096
8192
0
4096
-4096
8192
0
4096
-4096
8192
0
4096
-4096
8192
0
4096
-4096
8192
0
4096
-4096
8192
0
4096
-4096
8192
0
4096
-4096
8192
0
4096
-4096
8192
0
4096
-4096
8192
0
4096
-4096
8192
0
4096
-4096
8192
0
4096
-4096
8192
0
4096
-4096
8192
0
4096
-4096
8192
0
4096
-4096
8192
0
4096
-4096
8192
0
4096
-4096
8192
0
4096
-4096
8192
0
4096
-4096
8192
0
4096
-4096
8192
0
4096
-4096
8192
0
4096
-4096
8192
0
4096
-4096
8192
0
4096
-4096
8192
0
4096
-4096
8192
0
4096
-4096
8192
0
4096
-4096
8192
0
4096
-4096
8192
0
4096
-4096
8192
0
4096
-4096
8192
0
4096
-4096
8192
0
4096
-4096
8192
0
4096
-4096
8192
0
4096
-4096
8192
0
4096
-4096
8192
0
4096
-4096
8192
0
4096
-4096
8192
0
4096
-4096
8192
0
4096
-4096
8192
0
4096
-4096
8192
0
4096
-4096
8192
0
4096
-4096
8192
0
4096
-4096
8192
0
4096
-4096
8192
0
4096
-4096
8192
0
4096
-4096
8192
0
4096
-4096
8192
0
4096
-4096
8192
0
4096
-4096
8192
0
4096
-4096
8192
0
4096
-4096
8192
0
4096
-4096
8192
0
4096
-4096
8192
0
4096
-4096
8192
0
4096
-4096
8192
0
4096
-4096
8192
0
4096
-4096
8192
0
4096
-4096
8192
0
4096
-4096
8192
0
4096
-4096
8192
0
4096
-4096
8192
0
4096
-4096
8192
0
4096
-4096
8192
0
4096
-4096
8192
0
4096
-4096
8192
0
4096
-4096
8192
0
4096
-4096
8192
0
4096
-4096
8192
0
4096
-4096
8192
0
4096
-4096
8192
0
4096
-4096
8192
0
4096
-4096
8192
0
4096
-4096
8192
0
4096
-4096
8192
0
4096
-4096
8192
0
4096
-4096
8192
0
4096
-4096
8192
0
4096
-4096
8192
0
4096
-4096
8192
0
4096
-4096
8192
0
4096
-4096
8192
0
4096
-4096
8192
0
4096
-4096
8192
0
4096
-4096
8192
0
4096
-4096
8192
0
4096
-4096
8192
0
4096
-4096
8192
0
4096
-4096
8192
0
4096
-4096
8192
0
4096
-4096
8192
0
4096
-4096
8192
0
4096
-4096
8192
0
4096
-4096
8192
0
4096
-4096
8192
0
4096
-4096
8192
0
4096
-4096
8192
0
4096
-4096
8192
0
4096
-4096
8192
0
4096
-4096
8192
0
4096
-4096
8192
0
4096
-4096
8192
0
4096
-4096
8192
0
4096
-4096
8192
0
4096
-4096
8192
0
4096
-4096
8192
0
4096
-4096
8192
0
4096
-4096
8192
0
4096
-4096
8192
0
4096
-4096
8192
0
4096
-4096
8192
0
4096
-4096
8192
0
4096
-4096
8192
0
4096
-4096
8192
0
4096
-4096
8192
0
4096
-4096
8192
0
4096
-4096
8192
0
4096
-4096
8192
0
4096
-4096
8192
0
4096
-4096
8192
0
4096
-4096
8192
0
4096
-4096
8192
0
4096
-4096
8192
0
4096
-4096
8192
0
4096
-4096
8192
0
4096
-4096
8192
0
4096
-4096
8192
0
4096
-4096
8192
0
4096
-4096
8192
0
4096
-4096
8192
0
4096
-4096
8192
0
4096
-4096
8192
0
4096
-4096
8192
0
4096
-4096
8192
0
4096
-4096
8192
0
4096
-4096
8192
0
4096
-4096
8192
0
4096
-4096
8192
0
4096
-4096
8192
0
4096
-4096
8192
0
4096
-4096
8192
0
4096
-4096
8192
0
4096
-4096
8192
0
4096
-4096
8192
0
4096
-4096
8192
0
4096
-4096
8192
0
4096
-4096
8192
0
4096
-4096
8192
0
4096
-4096
8192
0
4096
-4096
8192
0
4096
-4096
8192
0
4096
-4096
8192
0
4096
-4096
8192
0
4096
-4096
8192
0
4096
-4096
8192
0
4096
-4096
8192
0
4096
-4096
8192
0
4096
-4096
8192
0
4096
-4096
8192
0
4096
-4096
8192
0
4096
-4096
8192
0
4096
-4096
8192
0
4096
-4096
8192
0
4096
-4096
8192
0
4096
-4096
8192
0
4096
-4096
8192
0
4096
-4096
8192
0
4096
-4096
8192
0
4096
-4096
8192
0
4096
-4096
8192
0
4096
-4096
8192
0
4096
-4096
8192
0
4096
-4096
8192
0
4096
-4096
8192
0
4096
-4096
8192
0
4096
-4096
8192
0
4096
-4096
8192
0
4096
-4096
8192
0
4096
-4096
8192
0
4096
-4096
8192
0
4096
-4096
8192
0
4096
-4096
8192
0
4096
-4096
8192
0
4096
-4096
8192
0
4096
-4096
8192
0
4096
-4096
8192
0
4096
-4096
8192
0
4096
-4096
8192
0
4096
-4096
8192
0
4096
-4096
8192
0
4096
-4096
8192
0
4096
-4096
8192
0
4096
-4096
8192
0
4096
-4096
8192
0
4096
-4096
8192
0
4096
-4096
8192
0
4096
-4096
8192
0
4096
-4096
8192
0
4096
-4096
8192
0
4096
-4096
8192
0
4096
-4096
8192
0
4096
-4096
8192
0
4096
-4096
8192
0
4096
-4096
8192
0
4096
-4096
8192
0
4096
-4096
8192
0
4096
-4096
8192
0
4096
-4096
8192
0
4096
-4096
8192
0
4096
-4096
8192
0
4096
-4096
8192
0
4096
-4096
8192
0
4096
-4096
8192
0
4096
-4096
8192
0
4096
-4096
8192
0
4096
-4096
8192
0
4096
-4096
8192
0
4096
-4096
8192
0
4096
-4096
8192
0
4096
-4096
8192
0
4096
-4096
8192
0
4096
-4096
8192
0
4096
-4096
8192
0
4096
-4096
8192
0
4096
-4096
8192
0
4096
-4096
8192
0
4096
-4096
8192
0
4096
-4096
8192
0
4096
-4096
8192
0
4096
-4096
8192
0
4096
-4096
8192
0
4096
-4096
8192
0
4096
-4096
8192
0
4096
-4096
8192
0
4096
-4096
8192
0
4096
-4096
8192
0
4096
-4096
8192
0
4096
-4096
8192
0
4096
-4096
8192
0
4096
-4096
8192
0
4096
-4096
8192
0
4096
-4096
8192
0
4096
-4096
8192
0
4096
-4096
8192
0
4096
-4096
8192
0
4096
-4096
8192
0
4096
-4096
8192
0
4096
-4096
8192
0
4096
-4096
8192
0
4096
-4096
8192
0
4096
-4096
8192
0
4096
-4096
8192
0
4096
-4096
8192
0
4096
-4096
8192
0
4096
-4096
8192
0
4096
-4096
8192
0
4096
-4096
8192
0
4096
-4096
8192
0
4096
-4096
8192
0
4096
-4096
8192
0
4096
-4096
8192
0
4096
-4096
8192
0
4096
-4096
8192
0
4096
-4096
8192
0
4096
-4096
8192
0
4096
-4096
8192
0
4096
-4096
8192
0
4096
-4096
8192
0
4096
-4096
8192
0
4096
-4096
8192
0
4096
-4096
8192
0
4096
-4096
8192
0
4096
-4096
8192
0
4096
-4096
8192
0
4096
-4096
8192
0
4096
-4096
8192
0
4096
-4096
8192
0
4096
-4096
8192
0
4096
-4096
8192
0
4096
-4096
8192
0
4096
-4096
8192
0
4096
-4096
8192
0
4096
-4096
8192
0
4096
-4096
8192
0
4096
-4096
8192
0
4096
-4096
8192
0
4096
-4096
8192
0
4096
-4096
8192
0
4096
-4096
8192
0
4096
-4096
8192
0
4096
-4096
8192
0
4096
-4096
8192
0
4096
-4096
8192
0
4096
-4096
8192
0
4096
-4096
8192
0
4096
-4096
8192
0
4096
-4096
8192
0
4096
-4096
8192
0
4096
-4096
8192
0
4096
-4096
8192
0
4096
-4096
8192
0
4096
-4096
8192
0
4096
-4096
8192
0
4096
-4096
8192
0
4096
-4096
8192
0
4096
-4096
8192
0
4096
-4096
8192
0
4096
-4096
8192
0
4096
-4096
8192
0
4096
-4096
8192
0
4096
-4096
8192
0
4096
-4096
8192
0
4096
-4096
8192
0
4096
-4096
8192
0
4096
-4096
8192
0
4096
-4096
8192
0
4096
-4096
8192
0
4096
-4096
8192
0
4096
-4096
8192
0
4096
-4096
8192
0
4096
-4096
8192
0
4096
-4096
8192
0
4096
-4096
8192
0
4096
-4096
8192
0
4096
-4096
8192
0
4096
-4096
8192
0
4096
-4096
8192
0
4096
-4096
8192
0
4096
-4096
8192
0
4096
-4096
8192
0
4096
-4096
8192
0
4096
-4096
8192
0
4096
-4096
8192
0
4096
-4096
8192
0
4096
-4096
8192
0
4096
-4096
8192
0
4096
-4096
8192
0
4096
-4096
8192
0
4096
-4096
8192
0
4096
-4096
8192
0
4096
-4096
8192
0
4096
-4096
8192
0
4096
-4096
8192
0
4096
-4096
8192
0
4096
-4096
8192
0
4096
-4096
8192
0
4096
-4096
8192
0
4096
-4096
8192
0
4096
-4096
8192
0
4096
-4096
8192
0
4096
-4096
8192
0
4096
-4096
8192
0
4096
-4096
8192
0
4096
-4096
8192
0
4096
-4096
8192
0
4096
-4096
8192
0
4096
-4096
8192
0
4096
-4096
8192
0
4096
-4096
8192
0
4096
-4096
8192
0
4096
-4096
8192
0
4096
-4096
8192
0
4096
-4096
8192
0
4096
-4096
8192
0
4096
-4096
8192
0
4096
-4096
8192
0
4096
-4096
8192
0
4096
-4096
8192
0
4096
-4096
8192
0
4096
-4096
8192
0
4096
-4096
8192
0
4096
-4096
8192
0
4096
-4096
8192
0
4096
-4096
8192
0
4096
-4096
8192
0
4096
-4096
8192
0
4096
-4096
8192
0
4096
-4096
8192
0
4096
-4096
8192
0
4096
-4096
8192
0
4096
-4096
8192
0
4096
-4096
8192
0
4096
-4096
8192
0
4096
-4096
8192
0
4096
-4096
8192
0
4096
-4096
8192
0
4096
-4096
8192
0
4096
-4096
8192
0
4096
-4096
8192
0
4096
-4096
8192
0
4096
-4096
8192
0
4096
-4096
8192
0
4096
-4096
8192
0
4096
-4096
8192
0
4096
-4096
8192
0
4096
-4096
8192
0
4096
-4096
8192
0
4096
-4096
8192
0
4096
-4096
8192
0
4096
-4096
8192
0
4096
-4096
8192
0
4096
-4096
8192
0
4096
-4096
8192
0
4096
-4096
8192
0
4096
-4096
8192
0
4096
-4096
8192
0
4096
-4096
8192
0
4096
-4096
8192
0
4096
-4096
8192
0
4096
-4096
8192
0
4096
-4096
8192
0
4096
-4096
8192
0
4096
-4096
8192
0
4096
-4096
8192
0
4096
-4096
8192
0
4096
-4096
8192
0
4096
-4096
8192
0
4096
-4096
8192
0
4096
-4096
8192
0
4096
-4096
8192
0
4096
-4096
8192
0
4096
-4096
8192
0
4096
-4096
8192
0
4096
-4096
8192
0
4096
-4096
8192
0
4096
-4096
8192
0
4096
-4096
8192
0
4096
-4096
8192
0
4096
-4096
8192
0
4096
-4096
8192
0
4096
-4096
8192
0
4096
-4096
8192
0
4096
-4096
8192
0
4096
-4096
8192
0
4096
-4096
8192
0
4096
-4096
8192
0
4096
-4096
8192
0
4096
-4096
8192
0
4096
-4096
8192
0
4096
-4096
8192
0
4096
-4096
8192
0
4096
-4096
8192
0
4096
-4096
8192
0
4096
-4096
8192
0
4096
-4096
8192
0
4096
-4096
8192
0
4096
-4096
8192
0
4096
-4096
8192
0
4096
-4096
8192
0
4096
-4096
8192
0
4096
-4096
8192
0
4096
-4096
8192
0
4096
-4096
8192
0
4096
-4096
8192
0
4096
-4096
8192
0
4096
-4096
8192
0
4096
-4096
8192
0
4096
-4096
8192
0
4096
-4096
8192
0
4096
-4096
8192
0
4096
-4096
8192
0
4096
-4096
8192
0
4096
-4096
8192
0
4096
-4096
8192
0
4096
-4096
8192
0
4096
-4096
8192
0
4096
-4096
8192
0
4096
-4096
8192
0
4096
-4096
8192
0
4096
-4096
8192
0
4096
-4096
8192
0
4096
-4096
8192
0
4096
-4096
8192
0
4096
-4096
8192
0
4096
-4096
8192
0
4096
-4096
8192
0
4096
-4096
8192
0
4096
-4096
8192
0
4096
-4096
8192
0
4096
-4096
8192
0
4096
-4096
8192
0
4096
-4096
8192
0
4096
-4096
8192
0
4096
-4096
8192
0
4096
-4096
8192
0
4096
-4096
8192
0
4096
-4096
8192
0
4096
-4096
8192
0
4096
-4096
8192
0
4096
-4096
8192
0
4096
-4096
8192
0
4096
-4096
8192
0
4096
-4096
8192
0
4096
-4096
8192
0
4096
-4096
8192
0
4096
-4096
8192
0
4096
-4096
8192
0
4096
-4096
8192
0
4096
-4096
8192
0
4096
-4096
8192
0
4096
-4096
8192
0
4096
-4096
8192
0
4096
-4096
8192
0
4096
-4096
8192
0
4096
-4096
8192
0
4096
-4096
8192
0
4096
-4096
8192
0
4096
-4096
8192
0
4096
-4096
8192
0
4096
-4096
8192
0
4096
-4096
8192
0
4096
-4096
8192
0
4096
-4096
8192
0
4096
-4096
8192
0
4096
-4096
8192
0
4096
-4096
8192
0
4096
-4096
8192
0
4096
-4096
8192
0
4096
-4096
8192
0
4096
-4096
8192
0
4096
-4096
8192
0
4096
-4096
8192
0
4096
-4096
8192
0
4096
-4096
8192
0
4096
-4096
8192
0
4096
-4096
8192
0
4096
-4096
8192
0
4096
-4096
8192
0
4096
-4096
8192
0
4096
-4096
8192
0
4096
-4096
8192
0
4096
-4096
8192
0
4096
-4096
8192
0
4096
-4096
8192
0
4096
-4096
8192
0
4096
-4096
8192
0
4096
-4096
8192
0
4096
-4096
8192
0
4096
-4096
8192
0
4096
-4096
8192
0
4096
-4096
8192
0
4096
-4096
8192
0
4096
-4096
8192
0
4096
-4096
8192
0
4096
-4096
8192
0
4096
-4096
8192
0
4096
-4096
8192
0
4096
-4096
8192
0
4096
-4096
8192
0
4096
-4096
8192
0
4096
-4096
8192
0
4096
-4096
8192
0
4096
-4096
8192
0
4096
-4096
8192
0
4096
-4096
8192
0
4096
-4096
8192
0
4096
-4096
8192
0
4096
-4096
8192
0
4096
-4096
8192
0
4096
-4096
8192
0
4096
-4096
8192
0
4096
-4096
8192
0
4096
-4096
8192
0
4096
-4096
8192
0
4096
-4096
8192
0
4096
-4096
8192
0
4096
-4096
8192
0
4096
-4096
8192
0
4096
-4096
8192
0
4096
-4096
8192
0
4096
-4096
8192
0
4096
-4096
8192
0
4096
-4096
8192
0
4096
-4096
8192
0
4096
-4096
8192
0
4096
-4096
8192
0
4096
-4096
8192
0
4096
-4096
8192
0
4096
-4096
8192
0
4096
-4096
8192
0
4096
-4096
8192
0
4096
-4096
8192
0
4096
-4096
8192
0
4096
-4096
8192
0
4096
-4096
8192
0
4096
-4096
8192
0
4096
-4096
8192
0
4096
-4096
8192
0
4096
-4096
8192
0
4096
-4096
8192
0
4096
-4096
8192
0
4096
-4096
8192
0
4096
-4096
8192
0
4096
-4096
8192
0
4096
-4096
8192
0
4096
-4096
8192
0
4096
-4096
8192
0
4096
-4096
8192
0
4096
-4096
8192
0
4096
-4096
8192
0
4096
-4096
8192
0
4096
-4096
8192
0
4096
-4096
8192
0
4096
-4096
8192
0
4096
-4096
8192
0
4096
-4096
8192
0
4096
-4096
8192
0
4096
-4096
8192
0
4096
-4096
8192
0
4096
-4096
8192
0
4096
-4096
8192
0
4096
-4096
8192
0
4096
-4096
8192
0
4096
-4096
8192
0
4096
-4096
8192
0
4096
-4096
8192
0
4096
-4096
8192
0
4096
-4096
8192
0
4096
-4096
8192
0
4096
-4096
8192
0
4096
-4096
8192
0
4096
-4096
8192
0
4096
-4096
8192
0
4096
-4096
8192
0
4096
-4096
8192
0
4096
-4096
8192
0
4096
-4096
8192
0
4096
-4096
8192
0
4096
-4096
8192
0
4096
-4096
8192
0
4096
-4096
8192
0
4096
-4096
8192
0
4096
-4096
8192
0
4096
-4096
8192
0
4096
-4096
8192
0
4096
-4096
8192
0
4096
-4096
8192
0
4096
-4096
8192
0
4096
-4096
8192
0
4096
-4096
8192
0
4096
-4096
8192
0
4096
-4096
8192
0
4096
-4096
8192
0
4096
-4096
8192
0
4096
-4096
8192
0
4096
-4096
8192
0
4096
-4096
8192
0
4096
-4096
8192
0
4096
-4096
8192
0
4096
-4096
8192
0
4096
-4096
8192
0
4096
-4096
8192
0
4096
-4096
8192
0
4096
-4096
8192
0
4096
-4096
8192
0
4096
-4096
8192
0
4096
-4096
8192
0
4096
-4096
8192
0
4096
-4096
8192
0
4096
-4096
8192
0
4096
-4096
8192
0
4096
-4096
8192
0
4096
-4096
8192
0
4096
-4096
8192
0
4096
-4096
8192
0
4096
-4096
8192
0
4096
-4096
8192
0
4096
-4096
8192
0
4096
-4096
8192
0
4096
-4096
8192
0
4096
-4096
8192
0
4096
-4096
8192
0
4096
-4096
8192
0
4096
-4096
8192
0
4096
-4096
8192
0
4096
-4096
8192
0
4096
-4096
8192
0
4096
-4096
8192
0
4096
-4096
8192
0
4096
-4096
8192
0
4096
-4096
8192
0
4096
-4096
8192
0
4096
-4096
8192
0
4096
-4096
8192
0
4096
-4096
8192
0
4096
-4096
8192
0
4096
-4096
8192
0
4096
-4096
8192
0
4096
-4096
8192
0
4096
-4096
8192
0
4096
-4096
8192
0
4096
-4096
8192
0
4096
-4096
8192
0
4096
-4096
8192
0
4096
-4096
8192
0
4096
-4096
8192
0
4096
-4096
8192
0
4096
-4096
8192
0
4096
-4096
8192
0
4096
-4096
8192
0
4096
-4096
8192
0
4096
-4096
8192
0
4096
-4096
8192
0
4096
-4096
8192
0
4096
-4096
8192
0
4096
-4096
8192
0
4096
-4096
8192
0
4096
-4096
8192
0
4096
-4096
8192
0
4096
-4096
8192
0
4096
-4096
8192
0
4096
-4096
8192
0
4096
-4096
8192
0
4096
-4096
8192
0
4096
-4096
8192
0
4096
-4096
8192
0
4096
-4096
8192
0
4096
-4096
8192
0
4096
-4096
8192
0
4096
-4096
8192
0
4096
-4096
8192
0
4096
-4096
8192
0
4096
-4096
8192
0
4096
-4096
8192
0
4096
-4096
8192
0
4096
-4096
8192
0
4096
-4096
8192
0
4096
-4096
8192
0
4096
-4096
8192
0
4096
-4096
8192
0
4096
-4096
8192
0
4096
-4096
8192
0
4096
-4096
8192
0
4096
-4096
8192
0
4096
-4096
8192
0
4096
-4096
8192
0
4096
-4096
8192
0
4096
-4096
8192
0
4096
-4096
8192
0
4096
-4096
8192
0
4096
-4096
8192
0
4096
-4096
8192
0
4096
-4096
8192
0
4096
-4096
8192
0
4096
-4096
8192
0
4096
-4096
8192
0
4096
-4096
8192
0
4096
-4096
8192
0
4096
-4096
8192
0
4096
-4096
8192
0
4096
-4096
8192
0
4096
-4096
8192
0
4096
-4096
8192
0
4096
-4096
8192
0
4096
-4096
8192
0
4096
-4096
8192
0
4096
-4096
8192
0
4096
-4096
8192
0
4096
-4096
8192
0
4096
-4096
8192
0
4096
-4096
8192
0
4096
-4096
8192
0
4096
-4096
8192
0
4096
-4096
8192
0
4096
-4096
8192
0
4096
-4096
8192
0
4096
-4096
8192
0
4096
-4096
8192
0
4096
-4096
8192
0
4096
-4096
8192
0
4096
-4096
8192
0
4096
-4096
8192
0
4096
-4096
8192
0
4096
-4096
8192
0
4096
-4096
8192
0
4096
-4096
8192
0
4096
-4096
8192
0
4096
-4096
8192
0
4096
-4096
8192
0
4096
-4096
8192
0
4096
-4096
8192
0
4096
-4096
8192
0
4096
-4096
8192
0
4096
-4096
8192
0
4096
-4096
8192
0
4096
-4096
8192
0
4096
-4096
8192
0
4096
-4096
8192
0
4096
-4096
8192
0
4096
-4096
8192
0
4096
-4096
8192
0
4096
-4096
8192
0
4096
-4096
8192
0
4096
-4096
8192
0
4096
-4096
8192
0
4096
-4096
8192
0
4096
-4096
8192
0
4096
-4096
8192
0
4096
-4096
8192
0
4096
-4096
8192
0
4096
-4096
8192
0
4096
-4096
8192
0
4096
-4096
8192
0
4096
-4096
8192
0
4096
-4096
8192
0
4096
-4096
8192
0
4096
-4096
8192
0
4096
-4096
8192
0
4096
-4096
8192
0
4096
-4096
8192
0
4096
-4096
8192
0
4096
-4096
8192
0
4096
-4096
8192
0
4096
-4096
8192
0
4096
-4096
8192
0
4096
-4096
8192
0
4096
-4096
8192
0
4096
-4096
8192
0
4096
-4096
8192
0
4096
-4096
8192
0
4096
-4096
8192
0
4096
-4096
8192
0
4096
-4096
8192
0
4096
-4096
8192
0
4096
-4096
8192
0
4096
-4096
8192
0
4096
-4096
8192
0
4096
-4096
8192
0
4096
-4096
8192
0
4096
-4096
8192
0
4096
-4096
8192
0
4096
-4096
8192
0
4096
-4096
8192
0
4096
-4096
8192
0
4096
-4096
8192
0
4096
-4096
8192
0
4096
-4096
8192
0
4096
-4096
8192
0
4096
-4096
8192
0
4096
-4096
8192
0
4096
-4096
8192
0
4096
-4096
8192
0
4096
-4096
8192
0
4096
-4096
8192
0
4096
-4096
8192
0
4096
-4096
8192
0
4096
-4096
8192
0
4096
-4096
8192
0
4096
-4096
8192
0
4096
-4096
8192
0
4096
-4096
8192
0
4096
-4096
8192
0
4096
-4096
8192
0
4096
-4096
8192
0
4096
-4096
8192
0
4096
-4096
8192
0
4096
-4096
8192
0
4096
-4096
8192
0
4096
-4096
8192
0
4096
-4096
8192
0
4096
-4096
8192
0
4096
-4096
8192
0
4096
-4096
8192
0
4096
-4096
8192
0
4096
-4096
8192
0
4096
-4096
8192
0
4096
-4096
8192
0
4096
-4096
8192
0
4096
-4096
8192
0
4096
-4096
8192
0
4096
-4096
8192
0
4096
-4096
8192
0
4096
-4096
8192
0
4096
-4096
8192
0
4096
-4096
8192
0
4096
-4096
8192
0
4096
-4096
8192
0
4096
-4096
8192
0
4096
-4096
8192
0
4096
-4096
8192
0
4096
-4096
8192
0
4096
-4096
8192
0
4096
-4096
8192
0
4096
-4096
8192
0
4096
-4096
8192
0
4096
-4096
8192
0
4096
-4096
8192
0
4096
-4096
8192
0
4096
-4096
8192
0
4096
-4096
8192
0
4096
-4096
8192
0
4096
-4096
8192
0
4096
-4096
8192
0
4096
-4096
8192
0
4096
-4096
8192
0
4096
-4096
8192
0
4096
-4096
8192
0
4096
-4096
8192
0
4096
-4096
8192
0
4096
-4096
8192
0
4096
-4096
8192
0
4096
-4096
8192
0
4096
-4096
8192
0
4096
-4096
8192
0
4096
-4096
8192
0
4096
-4096
8192
0
4096
-4096
8192
0
4096
-4096
8192
0
4096
-4096
8192
0
4096
-4096
8192
0
4096
-4096
8192
0
4096
-4096
8192
0
4096
-4096
8192
0
4096
-4096
8192
0
4096
-4096
8192
0
4096
-4096
8192
0
4096
-4096
8192
0
4096
-4096
8192
0
4096
-4096
8192
0
4096
-4096
8192
0
4096
-4096
8192
0
4096
-4096
8192
0
4096
-4096
8192
0
4096
-4096
8192
0
4096
-4096
8192
0
4096
-4096
8192
0
4096
-4096
8192
0
4096
-4096
8192
0
4096
-4096
8192
0
4096
-4096
8192
0
4096
-4096
8192
0
4096
-4096
8192
0
4096
-4096
8192
0
4096
-4096
8192
0
4096
-4096
8192
0
4096
-4096
8192
0
4096
-4096
8192
0
4096
-4096
8192
0
4096
-4096
8192
0
4096
-4096
8192
0
4096
-4096
8192
0
4096
-4096
8192
0
4096
-4096
8192
0
4096
-4096
8192
0
4096
-4096
8192
0
4096
-4096
8192
0
4096
-4096
8192
0
4096
-4096
8192
0
4096
-4096
8192
0
4096
-4096
8192
0
4096
-4096
8192
0
4096
-4096
8192
0
4096
-4096
8192
0
4096
-4096
8192
0
4096
-4096
8192
0
4096
-4096
8192
0
4096
-4096
8192
0
4096
-4096
8192
0
4096
-4096
8192
0
4096
-4096
8192
0
4096
-4096
8192
0
4096
-4096
8192
0
4096
-4096
8192
0
4096
-4096
8192
0
4096
-4096
8192
0
4096
-4096
8192
0
4096
-4096
8192
0
4096
-4096
8192
0
4096
-4096
8192
0
4096
-4096
8192
0
4096
-4096
8192
0
4096
-4096
8192
0
4096
-4096
8192
0
4096
-4096
8192
0
4096
-4096
8192
0
4096
-4096
8192
0
4096
-4096
8192
0
4096
-4096
8192
0
4096
-4096
8192
0
4096
-4096
8192
0
4096
-4096
8192
0
4096
-4096
8192
0
4096
-4096
8192
0
4096
-4096
8192
0
4096
-4096
8192
0
4096
-4096
8192
0
4096
-4096
8192
0
4096
-4096
8192
0
4096
-4096
8192
0
4096
-4096
8192
0
4096
-4096
8192
0
4096
-4096
8192
0
4096
-4096
8192
0
4096
-4096
8192
0
4096
-4096
8192
0
4096
-4096
8192
0
4096
-4096
8192
0
4096
-4096
8192
0
4096
-4096
8192
0
4096
-4096
8192
0
4096
-4096
8192
0
4096
-4096
8192
0
4096
-4096
8192
0
4096
-4096
8192
0
4096
-4096
8192
0
4096
-4096
8192
0
4096
-4096
8192
0
4096
-4096
8192
0
4096
-4096
8192
0
4096
-4096
8192
0
4096
-4096
8192
0
4096
-4096
8192
0
4096
-4096
8192
0
4096
-4096
8192
0
4096
-4096
8192
0
4096
-4096
8192
0
4096
-4096
8192
0
4096
-4096
8192
0
4096
-4096
8192
0
4096
-4096
8192
0
4096
-4096
8192
0
4096
-4096
8192
0
4096
-4096
8192
0
4096
-4096
8192
0
4096
-4096
8192
0
4096
-4096
8192
0
4096
-4096
8192
0
4096
-4096
8192
0
4096
-4096
8192
0
4096
-4096
8192
0
4096
-4096
8192
0
4096
-4096
8192
0
4096
-4096
8192
0
4096
-4096
8192
0
4096
-4096
8192
0
4096
-4096
8192
0
4096
-4096
8192
0
4096
-4096
8192
0
4096
-4096
8192
0
4096
-4096
8192
0
4096
-4096
8192
0
4096
-4096
8192
0
4096
-4096
8192
0
4096
-4096
8192
0
4096
-4096
8192
0
4096
-4096
8192
0
4096
-4096
8192
0
4096
-4096
8192
0
4096
-4096
8192
0
4096
-4096
8192
0
4096
-4096
8192
0
4096
-4096
8192
0
4096
-4096
8192
0
4096
-4096
8192
0
4096
-4096
8192
0
4096
-4096
8192
0
4096
-4096
8192
0
4096
-4096
8192
0
4096
-4096
8192
0
4096
-4096
8192
0
4096
-4096
8192
0
4096
-4096
8192
0
4096
-4096
8192
0
4096
-4096
8192
0
4096
-4096
8192
0
4096
-4096
8192
0
4096
-4096
8192
0
4096
-4096
8192
0
4096
-4096
8192
0
4096
-4096
8192
0
4096
-4096
8192
0
4096
-4096
8192
0
4096
-4096
8192
0
4096
-4096
8192
0
4096
-4096
8192
0
4096
-4096
8192
0
4096
-4096
8192
0
4096
-4096
8192
0
4096
-4096
8192
0
4096
-4096
8192
0
4096
-4096
8192
0
4096
-4096
8192
0
4096
-4096
8192
0
4096
-4096
8192
0
4096
-4096
8192
0
4096
-4096
8192
0
4096
-4096
8192
0
4096
-4096
8192
0
4096
-4096
8192
0
4096
-4096
8192
0
4096
-4096
8192
0
4096
-4096
8192
0
4096
-4096
8192
0
4096
-4096
8192
0
4096
-4096
8192
0
4096
-4096
8192
0
4096
-4096
8192
0
4096
-4096
8192
0
4096
-4096
8192
0
4096
-4096
8192
0
4096
-4096
8192
0
4096
-4096
8192
0
4096
-4096
8192
0
4096
-4096
8192
0
4096
-4096
8192
0
4096
-4096
8192
0
4096
-4096
8192
0
4096
-4096
8192
0
4096
-4096
8192
0
4096
-4096
8192
0
4096
-4096
8192
0
4096
-4096
8192
0
4096
-4096
8192
0
4096
-4096
8192
0
4096
-4096
8192
0
4096
-4096
8192
0
4096
-4096
8192
0
4096
-4096
8192
0
4096
-4096
8192
0
4096
-4096
8192
0
4096
-4096
8192
0
4096
-4096
8192
0
4096
-4096
8192
0
4096
-4096
8192
0
4096
-4096
8192
0
4096
-4096
8192
0
4096
-4096
8192
0
4096
-4096
8192
0
4096
-4096
8192
0
4096
-4096
8192
0
4096
-4096
8192
0
4096
-4096
8192
0
4096
-4096
8192
0
4096
-4096
8192
0
4096
-4096
8192
0
4096
-4096
8192
0
4096
-4096
8192
0
4096
-4096
8192
0
4096
-4096
8192
0
4096
-4096
8192
0
4096
-4096
8192
0
4096
-4096
8192
0
4096
-4096
8192
0
4096
-4096
8192
0
4096
-4096
8192
0
4096
-4096
8192
0
4096
-4096
8192
0
4096
-4096
8192
0
4096
-4096
8192
0
4096
-4096
8192
0
4096
-4096
8192
0
4096
-4096
8192
0
4096
-4096
8192
0
4096
-4096
8192
0
4096
-4096
8192
0
4096
-4096
8192
0
4096
-4096
8192
0
4096
-4096
8192
0
4096
-4096
8192
0
4096
-4096
8192
0
4096
-4096
8192
0
4096
-4096
8192
0
4096
-4096
8192
0
4096
-4096
8192
0
4096
-4096
8192
0
4096
-4096
8192
0
4096
-4096
8192
0
4096
-4096
8192
0
4096
-4096
8192
0
4096
-4096
8192
0
4096
-4096
8192
0
4096
-4096
8192
0
4096
-4096
8192
0
4096
-4096
8192
0
4096
-4096
8192
0
4096
-4096
8192
0
4096
-4096
8192
0
4096
-4096
8192
0
4096
-4096
8192
0
4096
-4096
8192
0
4096
-4096
8192
0
4096
-4096
8192
0
4096
-4096
8192
0
4096
-4096
8192
0
4096
-4096
8192
0
4096
-4096
8192
0
4096
-4096
8192
0
4096
-4096
8192
0
4096
-4096
8192
0
4096
-4096
8192
0
4096
-4096
8192
0
4096
-4096
8192
0
4096
-4096
8192
0
4096
-4096
8192
0
4096
-4096
8192
0
4096
-4096
8192
0
4096
-4096
8192
0
4096
-4096
8192
0
4096
-4096
8192
0
4096
-4096
8192
0
4096
-4096
8192
0
4096
-4096
8192
0
4096
-4096
8192
0
4096
-4096
8192
0
4096
-4096
8192
0
4096
-4096
8192
0
4096
-4096
8192
0
4096
-4096
8192
0
4096
-4096
8192
0
4096
-4096
8192
0
4096
-4096
8192
0
4096
-4096
8192
0
4096
-4096
8192
0
4096
-4096
8192
0
4096
-4096
8192
0
4096
-4096
8192
0
4096
-4096
8192
0
4096
-4096
8192
0
4096
-4096
8192
0
4096
-4096
8192
0
4096
-4096
8192
0
4096
-4096
8192
0
4096
-4096
8192
0
4096
-4096
8192
0
4096
-4096
8192
0
4096
-4096
8192
0
4096
-4096
8192
0
4096
-4096
8192
0
4096
-4096
8192
0
4096
-4096
8192
0
4096
-4096
8192
0
4096
-4096
8192
0
4096
-4096
8192
0
4096
-4096
8192
0
4096
-4096
8192
0
4096
-4096
8192
0
4096
-4096
8192
0
4096
-4096
8192
0
4096
-4096
8192
0
4096
-4096
8192
0
4096
-4096
8192
0
4096
-4096
8192
0
4096
-4096
8192
0
4096
-4096
8192
0
4096
-4096
8192
0
4096
-4096
8192
0
4096
-4096
8192
0
4096
-4096
8192
0
4096
-4096
8192
0
4096
-4096
8192
0
4096
-4096
8192
0
4096
-4096
8192
0
4096
-4096
8192
0
4096
-4096
8192
0
4096
-4096
8192
0
4096
-4096
8192
0
4096
-4096
8192
0
4096
-4096
8192
0
4096
-4096
8192
0
4096
-4096
8192
0
4096
-4096
8192
0
4096
-4096
8192
0
4096
-4096
8192
0
4096
-4096
8192
0
4096
-4096
8192
0
4096
-4096
8192
0
4096
-4096
8192
0
4096
-4096
8192
0
4096
-4096
8192
0
4096
-4096
8192
0
4096
-4096
8192
0
4096
-4096
8192
0
4096
-4096
8192
0
4096
-4096
8192
0
4096
-4096
8192
0
4096
-4096
8192
0
4096
-4096
8192
0
4096
-4096
8192
0
4096
-4096
8192
0
4096
-4096
8192
0
4096
-4096
8192
0
4096
-4096
8192
0
4096
-4096
8192
0
4096
-4096
8192
0
4096
-4096
8192
0
4096
-4096
8192
0
4096
-4096
8192
0
4096
-4096
8192
0
4096
-4096
8192
0
4096
-4096
8192
0
4096
-4096
8192
0
4096
-4096
8192
0
4096
-4096
8192
0
4096
-4096
8192
0
4096
-4096
8192
0
4096
-4096
8192
0
4096
-4096
8192
0
4096
-4096
8192
0
4096
-4096
8192
0
4096
-4096
8192
0
4096
-4096
8192
0
4096
-4096
8192
0
4096
-4096
8192
0
4096
-4096
8192
0
4096
-4096
8192
0
4096
-4096
8192
0
4096
-4096
8192
0
4096
-4096
8192
0
4096
-4096
8192
0
4096
-4096
8192
0
4096
-4096
8192
0
4096
-4096
8192
0
4096
-4096
8192
0
4096
-4096
8192
0
4096
-4096
8192
0
4096
-4096
8192
0
4096
-4096
8192
0
4096
-4096
8192
0
4096
-4096
8192
0
4096
-4096
8192
0
4096
-4096
8192
0
4096
-4096
8192
0
4096
-4096
8192
0
4096
-4096
8192
0
4096
-4096
8192
0
4096
-4096
8192
0
4096
-4096
8192
0
4096
-4096
8192
0
4096
-4096
8192
0
4096
-4096
8192
0
4096
-4096
8192
0
4096
-4096
8192
0
4096
-4096
8192
0
4096
-4096
8192
0
4096
-4096
8192
0
4096
-4096
8192
0
4096
-4096
8192
0
4096
-4096
8192
0
4096
-4096
8192
0
4096
-4096
8192
0
4096
-4096
8192
0
4096
-4096
8192
0
4096
-4096
8192
0
4096
-4096
8192
0
4096
-4096
8192
0
4096
-4096
8192
0
4096
-4096
8192
0
4096
-4096
8192
0
4096
-4096
8192
0
4096
-4096
8192
0
4096
-4096
8192
0
4096
-4096
8192
0
4096
-4096
8192
0
4096
-4096
8192
0
4096
-4096
8192
0
4096
-4096
8192
0
4096
-4096
8192
0
4096
-4096
8192
0
4096
-4096
8192
0
4096
-4096
8192
0
4096
-4096
8192
0
4096
-4096
8192
0
4096
-4096
8192
0
4096
-4096
8192
0
4096
-4096
8192
0
4096
-4096
8192
0
4096
-4096
8192
0
4096
-4096
8192
0
4096
-4096
8192
0
4096
-4096
8192
0
4096
-4096
8192
0
4096
-4096
8192
0
4096
-4096
8192
0
4096
-4096
8192
0
4096
-4096
8192
0
4096
-4096
8192
0
4096
-4096
8192
0
4096
-4096
8192
0
4096
-4096
8192
0
4096
-4096
8192
0
4096
-4096
8192
0
4096
-4096
8192
0
4096
-4096
8192
0
4096
-4096
8192
0
4096
-4096
8192
0
4096
-4096
8192
0
4096
-4096
8192
0
4096
-4096
8192
0
4096
-4096
8192
0
4096
-4096
8192
0
4096
-4096
8192
0
4096
-4096
8192
0
4096
-4096
8192
0
4096
-4096
8192
0
4096
-4096
8192
0
4096
-4096
8192
0
4096
-4096
8192
0
4096
-4096
8192
0
4096
-4096
8192
0
4096
-4096
8192
0
4096
-4096
8192
0
4096
-4096
8192
0
4096
-4096
8192
0
4096
-4096
8192
0
4096
-4096
8192
0
4096
-4096
8192
0
4096
-4096
8192
0
4096
-4096
8192
0
4096
-4096
8192
0
4096
-4096
8192
0
4096
-4096
8192
0
4096
-4096
8192
0
4096
-4096
8192
0
4096
-4096
8192
0
4096
-4096
8192
0
4096
-4096
8192
0
4096
-4096
8192
0
4096
-4096
8192
0
4096
-4096
8192
0
4096
-4096
8192
0
4096
-4096
8192
0
4096
-4096
8192
0
4096
-4096
8192
0
4096
-4096
8192
0
4096
-4096
8192
0
4096
-4096
8192
0
4096
-4096
8192
0
4096
-4096
8192
0
4096
-4096
8192
0
4096
-4096
8192
0
4096
-4096
8192
0
4096
-4096
8192
0
4096
-4096
8192
0
4096
-4096
8192
0
4096
-4096
8192
0
4096
-4096
8192
0
4096
-4096
8192
0
4096
-4096
8192
0
4096
-4096
8192
0
4096
-4096
8192
0
4096
-4096
8192
0
4096
-4096
8192
0
4096
-4096
8192
0
4096
-4096
8192
0
4096
-4096
8192
0
4096
-4096
8192
0
4096
-4096
8192
0
4096
-4096
8192
0
4096
-4096
8192
0
4096
-4096
8192
0
4096
-4096
8192
0
4096
-4096
8192
0
4096
-4096
8192
0
4096
-4096
8192
0
4096
-4096
8192
0
4096
-4096
8192
0
4096
-4096
8192
0
4096
-4096
8192
0
4096
-4096
8192
0
4096
-4096
8192
0
4096
-4096
8192
0
4096
-4096
8192
0
4096
-4096
8192
0
4096
-4096
8192
0
4096
-4096
8192
0
4096
-4096
8192
0
4096
-4096
8192
0
4096
-4096
8192
0
4096
-4096
8192
0
4096
-4096
8192
0
4096
-4096
8192
0
4096
-4096
8192
0
4096
-4096
8192
0
4096
-4096
8192
0
4096
-4096
8192
0
4096
-4096
8192
0
4096
-4096
8192
0
4096
-4096
8192
0
4096
-4096
8192
0
4096
-4096
8192
0
4096
-4096
8192
0
4096
-4096
8192
0
4096
-4096
8192
0
4096
-4096
8192
0
4096
-4096
8192
0
4096
-4096
8192
0
4096
-4096
8192
0
4096
-4096
8192
0
4096
-4096
8192
0
4096
-4096
8192
0
4096
-4096
8192
0
4096
-4096
8192
0
4096
-4096
8192
0
4096
-4096
8192
0
4096
-4096
8192
0
4096
-4096
8192
0
4096
-4096
8192
0
4096
-4096
8192
0
4096
-4096
8192
0
4096
-4096
8192
0
4096
-4096
8192
0
4096
-4096
8192
0
4096
-4096
8192
0
4096
-4096
8192
0
4096
-4096
8192
0
4096
-4096
8192
0
4096
-4096
8192
0
4096
-4096
8192
0
4096
-4096
8192
0
4096
-4096
8192
0
4096
-4096
8192
0
4096
-4096
8192
0
4096
-4096
8192
0
4096
-4096
8192
0
4096
-4096
8192
0
4096
-4096
8192
0
4096
-4096
8192
0
4096
-4096
8192
0
4096
-4096
8192
0
4096
-4096
8192
0
4096
-4096
8192
0
4096
-4096
8192
0
4096
-4096
8192
0
4096
-4096
8192
0
4096
-4096
8192
0
4096
-4096
8192
0
4096
-4096
8192
0
4096
-4096
8192
0
4096
-4096
8192
0
4096
-4096
8192
0
4096
-4096
8192
0
4096
-4096
8192
0
4096
-4096
8192
0
4096
-4096
8192
0
4096
-4096
8192
0
4096
-4096
8192
0
4096
-4096
8192
0
4096
-4096
8192
0
4096
-4096
8192
0
4096
-4096
8192
0
4096
-4096
8192
0
4096
-4096
8192
0
4096
-4096
8192
0
4096
-4096
8192
0
4096
-4096
8192
0
4096
-4096
8192
0
4096
-4096
8192
0
4096
-4096
8192
0
4096
-4096
8192
0
4096
-4096
8192
0
4096
-4096
8192
0
4096
-4096
8192
0
4096
-4096
8192
0
4096
-4096
8192
0
4096
-4096
8192
0
4096
-4096
8192
0
4096
-4096
8192
0
4096
-4096
8192
0
4096
-4096
8192
0
4096
-4096
8192
0
4096
-4096
8192
0
4096
-4096
8192
0
4096
-4096
8192
0
4096
-4096
8192
0
4096
-4096
8192
0
4096
-4096
8192
0
4096
-4096
8192
0
4096
-4096
8192
0
4096
-4096
8192
0
4096
-4096
8192
0
4096
-4096
8192
0
4096
-4096
8192
0
4096
-4096
8192
0
4096
-4096
8192
0
4096
-4096
8192
0
4096
-4096
8192
0
4096
-4096
8192
0
4096
-4096
8192
0
4096
-4096
8192
0
4096
-4096
8192
0
4096
-4096
8192
0
4096
-4096
8192
0
4096
-4096
8192
0
4096
-4096
8192
0
4096
-4096
8192
0
4096
-4096
8192
0
4096
-4096
8192
0
4096
-4096
8192
0
4096
-4096
8192
0
4096
-4096
8192
0
4096
-4096
8192
0
4096
-4096
8192
0
4096
-4096
8192
0
4096
-4096
8192
0
4096
-4096
8192
0
4096
-4096
8192
0
4096
-4096
8192
0
4096
-4096
8192
0
4096
-4096
8192
0
4096
-4096
8192
0
4096
-4096
8192
0
4096
-4096
8192
0
4096
-4096
8192
0
4096
-4096
8192
0
4096
-4096
8192
0
4096
-4096
8192
0
4096
-4096
8192
0
4096
-4096
8192
0
4096
-4096
8192
0
4096
-4096
8192
0
4096
-4096
8192
0
4096
-4096
8192
0
4096
-4096
8192
0
4096
-4096
8192
0
4096
-4096
8192
0
4096
-4096
8192
0
4096
-4096
8192
0
4096
-4096
8192
0
4096
-4096
8192
0
4096
-4096
8192
0
4096
-4096
8192
0
4096
-4096
8192
0
4096
-4096
8192
0
4096
-4096
8192
0
4096
-4096
8192
0
4096
-4096
8192
0
4096
-4096
8192
0
4096
-4096
8192
0
4096
-4096
8192
0
4096
-4096
8192
0
4096
-4096
8192
0
4096
-4096
8192
0
4096
-4096
8192
0
4096
-4096
8192
0
4096
-4096
8192
0
4096
-4096
8192
0
4096
-4096
8192
0
4096
-4096
8192
0
4096
-4096
8192
0
4096
-4096
8192
0
4096
-4096
8192
0
4096
-4096
8192
0
4096
-4096
8192
0
4096
-4096
8192
0
4096
-4096
8192
0
4096
-4096
8192
0
4096
-4096
8192
0
4096
-4096
8192
0
4096
-4096
8192
0
4096
-4096
8192
0
4096
-4096
8192
0
4096
-4096
8192
0
4096
-4096
8192
0
4096
-4096
8192
0
4096
-4096
8192
0
4096
-4096
8192
0
4096
-4096
8192
0
4096
-4096
8192
0
4096
-4096
8192
0
4096
-4096
8192
0
4096
-4096
8192
0
4096
-4096
8192
0
4096
-4096
8192
0
4096
-4096
8192
0
4096
-4096
8192
0
4096
-4096
8192
0
4096
-4096
8192
0
4096
-4096
8192
0
4096
-4096
8192
0
4096
-4096
8192
0
4096
-4096
8192
0
4096
-4096
8192
0
4096
-4096
8192
0
4096
-4096
8192
0
4096
-4096
8192
0
4096
-4096
8192
0
4096
-4096
8192
0
4096
-4096
8192
0
4096
-4096
8192
0
4096
-4096
8192
0
4096
-4096
8192
0
4096
-4096
8192
0
4096
-4096
8192
0
4096
-4096
8192
0
4096
-4096
8192
0
4096
-4096
8192
0
4096
-4096
8192
0
4096
-4096
8192
0
4096
-4096
8192
0
4096
-4096
8192
0
4096
-4096
8192
0
4096
-4096
8192
0
4096
-4096
8192
0
4096
-4096
8192
0
4096
-4096
8192
0
4096
-4096
8192
0
4096
-4096
8192
0
4096
-4096
8192
0
4096
-4096
8192
0
4096
-4096
8192
0
4096
-4096
8192
0
4096
-4096
8192
0
4096
-4096
8192
0
4096
-4096
8192
0
4096
-4096
8192
0
4096
-4096
8192
0
4096
-4096
8192
0
4096
-4096
8192
0
4096
-4096
8192
0
4096
-4096
8192
0
4096
-4096
8192
0
4096
-4096
8192
0
4096
-4096
8192
0
4096
-4096
8192
0
4096
-4096
8192
0
4096
-4096
8192
0
4096
-4096
8192
0
4096
-4096
8192
0
4096
-4096
8192
0
4096
-4096
8192
0
4096
-4096
8192
0
4096
-4096
8192
0
4096
-4096
8192
0
4096
-4096
8192
0
4096
-4096
8192
0
4096
-4096
8192
0
4096
-4096
8192
0
4096
-4096
8192
0
4096
-4096
8192
0
4096
-4096
8192
0
4096
-4096
8192
0
4096
-4096
8192
0
4096
-4096
8192
0
4096
-4096
8192
0
4096
-4096
8192
0
4096
-4096
8192
0
4096
-4096
8192
0
4096
-4096
8192
0
4096
-4096
8192
0
4096
-4096
8192
0
4096
-4096
8192
0
4096
-4096
8192
0
4096
-4096
8192
0
4096
-4096
8192
0
4096
-4096
8192
0
4096
-4096
8192
0
4096
-4096
8192
0
4096
-4096
8192
0
4096
-4096
8192
0
4096
-4096
8192
0
4096
-4096
8192
0
4096
-4096
8192
0
4096
-4096
8192
0
4096
-4096
8192
0
4096
-4096
8192
0
4096
-4096
8192
0
4096
-4096
8192
0
4096
-4096
8192
0
4096
-4096
8192
0
4096
-4096
8192
0
4096
-4096
8192
0
4096
-4096
8192
0
4096
-4096
8192
0
4096
-4096
8192
0
4096
-4096
8192
0
4096
-4096
8192
0
4096
-4096
8192
0
4096
-4096
8192
0
4096
-4096
8192
0
4096
-4096
8192
0
4096
-4096
8192
0
4096
-4096
8192
0
4096
-4096
8192
0
4096
-4096
8192
0
4096
-4096
8192
0
4096
-4096
8192
0
4096
-4096
8192
0
4096
-4096
8192
0
4096
-4096
8192
0
4096
-4096
8192
0
4096
-4096
8192
0
4096
-4096
8192
0
4096
-4096
8192
0
4096
-4096
8192
0
4096
-4096
8192
0
4096
-4096
8192
0
4096
-4096
8192
0
4096
-4096
8192
0
4096
-4096
8192
0
4096
-4096
8192
0
4096
-4096
8192
0
4096
-4096
8192
0
4096
-4096
8192
0
4096
-4096
8192
0
4096
-4096
8192
0
4096
-4096
8192
0
4096
-4096
8192
